70
Properties=species:S:1:pos:R:3:radius:R:1
A 16.863563316047316 8.715992775665478 38.90255942064395 2.5
E 16.86373162703443 11.117241841952861 39.5982625853093 0.5
E 16.8633950050602 6.314743709378096 38.20685625597859 0.5
E 16.86566885415948 8.02028972000912 41.30380760129077 0.5
E 16.86145777793515 9.411695831321836 36.50131123999712 0.5
P 14.36356420837134 8.715568506434932 38.90462862700151 0.5
P 19.36356242372329 8.716417044896025 38.900490214286386 0.5
A 23.15169215743417 21.448543063051886 14.30247425396294 2.5
E 23.153384520084014 23.847085375742655 15.00745078558699 0.5
E 23.149999794784325 19.050000750361118 13.59749772233889 0.5
E 23.155783403940305 20.743564656754756 16.701013123432595 0.5
E 23.147600910928034 22.153521469349016 11.903935384493282 0.5
P 20.651696077915105 21.44901304898188 14.306876696755092 0.5
P 25.651688236953234 21.448073077121894 14.298071811170788 0.5
A 35.58555810491981 25.491823118505426 21.5122080746735 2.5
E 35.58897838009359 27.891363001702747 22.21377535631021 0.5
E 35.58213782974603 23.092283235308106 20.810640793036786 0.5
E 35.58827934185727 24.790252022559216 23.911747737234293 0.5
E 35.58283686798235 26.193394214451637 19.112668412112704 0.5
P 33.085561925605276 25.494342300559605 21.515779787779568 0.5
P 38.08555428423435 25.489303936451247 21.50863636156743 0.5
A 7.724065100646622 34.423782958236565 2.3947946546705063 2.5
E 7.7246260163777825 36.82384692962574 3.094575062093556 0.5
E 7.723504184915462 32.02371898684739 1.6950142472474568 0.5
E 7.720687942193025 33.72400389912222 4.794856708706991 0.5
E 7.727442259100219 35.123562017350906 -0.00526739936597842 0.5
P 5.224067444612855 34.42526675898875 2.3917095029714837 0.5
P 10.22406275668039 34.42229915748438 2.397879806369529 0.5
A 25.928862552701606 40.06125893932533 24.261402479020862 2.5
E 25.930221058073318 42.46154009820288 24.960436464461186 0.5
E 25.927504047329894 37.66097778044777 23.56236849358054 0.5
E 25.927122655987375 39.36222592772083 26.661683675349032 0.5
E 25.930602449415836 40.760291950929826 21.861121282692693 0.5
P 23.428863527257278 40.06304975605862 24.260111838540745 0.5
P 28.428861578145934 40.05946812259204 24.26269311950098 0.5
A 15.64907439548917 11.95735878149116 25.935068858328275 2.5
E 15.65457421439244 14.35768978001093 26.633911365290412 0.5
E 15.643574576585898 9.557027782971392 25.23622635136614 0.5
E 15.647465022181398 11.258518127610953 28.335406157626405 0.5
E 15.65068376879694 12.656199435371368 23.534731559030146 0.5
P 13.149080963115878 11.96308922906314 25.935061045688176 0.5
P 18.14906782786246 11.951628333919182 25.935076670968375 0.5
A 17.019241493956805 37.62907036447456 21.098888356465366 2.5
E 17.01749629639269 40.03009951337962 21.79534796074526 0.5
E 17.02098669152092 35.2280412155695 20.40242875218547 0.5
E 17.01858169737546 36.932610172396146 23.499917878465993 0.5
E 17.01990129053815 38.32553055655297 18.69785883446474 0.5
P 14.519242190166118 37.62757806479167 21.097768495883418 0.5
P 19.519240797747493 37.630562664157445 21.100008217047314 0.5
A 22.418411764566045 23.162767137510784 20.900340714937965 2.5
E 22.418335745691035 25.563208276708984 21.59882645671512 0.5
E 22.418487783441055 20.762325998312583 20.20185497316081 0.5
E 22.422762630474647 22.464282580230783 23.30077825697217 0.5
E 22.414060898657443 23.861251694790784 18.49990317290376 0.5
P 19.918415551731517 23.161478538965575 20.90449707474112 0.5
P 24.918407977400573 23.164055736055992 20.89618435513481 0.5
A 3.1736168895587187 17.035307216300435 34.946255058251694 2.5
E 3.1685733594405403 19.43543761355317 35.645789645664905 0.5
E 3.178660419676897 14.635176819047699 34.24672047083848 0.5
E 3.1768762707427047 16.33577811273796 37.346390139805095 0.5
E 3.1703575083747326 17.73483631986291 32.54611997669829 0.5
P 0.6736241017214741 17.029553134923127 34.94797299575312 0.5
P 5.673609677395963 17.041061297677743 34.94453712075027 0.5
A 0.5227605417173549 11.559679913389687 24.9222892050152 2.5
E 0.5170783691198185 13.958823855206862 25.62519464627776 0.5
E 0.5284427143148912 9.16053597157251 24.219383763752642 0.5
E 0.5203508637471081 10.856767727098694 27.321436689397036 0.5
E 0.5251702196876016 12.26259209968068 22.523141720633365 0.5
P -1.9772318395443662 11.554904475655196 24.918379111948216 0.5
P 3.022752922979076 11.564455351124177 24.926199298082185 0.5
70
Properties=species:S:1:pos:R:3:radius:R:1
A 16.701658827288224 8.195768112534486 39.435554036790776 2.5
E 16.9713858036079 10.678649357160367 39.323535809120145 0.5
E 16.431931850968546 5.712886867908605 39.54757226446141 0.5
E 17.52199953720281 8.213193164816582 41.79706573212701 0.5
E 15.881318117373636 8.17834306025239 37.07404234145454 0.5
P 14.355536818972741 8.487310721149406 40.24839745926508 0.5
P 19.047780835603707 7.904225503919566 38.622710614316475 0.5
A 22.916769532728217 21.809687909927355 14.367255307578368 2.5
E 25.08533149523987 22.30102664455734 15.51002617813806 0.5
E 20.748207570216564 21.31834917529737 13.224484437018676 0.5
E 24.100263710115488 21.701864299535764 12.167774550414874 0.5
E 21.733275355340947 21.917511520318946 16.56673606474186 0.5
P 23.29975849710967 19.36081871846484 14.693382792264488 0.5
P 22.533780568346764 24.25855710138987 14.041127822892248 0.5
A 36.101247317126905 25.43914390591459 21.422351228535824 2.5
E 38.29706372113432 26.261780388809342 22.28933423696368 0.5
E 33.90543091311949 24.61650742301984 20.55536822010797 0.5
E 37.2135005032854 24.696230395947257 19.310249818425884 0.5
E 34.98899413096841 26.182057415881925 23.534452638645764 0.5
P 36.538606631389584 23.198307291228307 22.440863916973775 0.5
P 35.663888002864226 27.679980520600875 20.403838540097873 0.5
A 8.074716232132692 35.10509608607073 1.871169890605601 2.5
E 10.086094643217832 36.553402139496214 2.197921268616163 0.5
E 6.063337821047552 33.65679003264525 1.544418512595039 0.5
E 7.572327905518282 35.25127048298625 4.315804631209611 0.5
E 8.577104558747102 34.95892168915521 -0.5734648499984085 0.5
P 6.677589589089097 37.13759273337364 1.4625202582795194 0.5
P 9.471842875176288 33.072599438767824 2.2798195229316827 0.5
A 26.18919554067584 0.24371746482083126 24.764631861465485 2.5
E 27.570119105379476 1.9533772532128166 25.95631701971895 0.5
E 24.808271975972204 -1.465942323571154 23.572946703212022 0.5
E 27.09031516734742 -1.5351508164153054 26.27248167376085 0.5
E 25.28807591400426 2.022585746056968 23.25678204917012 0.5
P 24.31009109257473 0.6470672459877141 26.36346750879111 0.5
P 28.06829998877695 -0.1596323163460516 23.16579621413986 0.5
A 15.803256954034497 11.954041034589183 26.35556839808195 2.5
E 15.388740074712404 9.493636876305944 26.512371250925025 0.5
E 16.217773833356592 14.414445192872423 26.198765545238874 0.5
E 16.619759970597364 11.96706752235469 28.718438080176234 0.5
E 14.98675393747163 11.941014546823677 23.992698715987665 0.5
P 18.12951974673461 11.51104928690177 25.554157310823957 0.5
P 13.476994161334385 12.397032782276597 27.156979485339942 0.5
A 16.823862467587094 38.135637261381895 21.618200553778195 2.5
E 15.882012437208763 39.323199022352036 19.63008194963063 0.5
E 17.765712497965428 36.948075500411754 23.60631915792576 0.5
E 15.540103084040497 39.65418923182509 23.13344368879613 0.5
E 18.107621851133693 36.6170852909387 20.10295741876026 0.5
P 14.896459975777912 36.543878178811795 21.58048241990078 0.5
P 18.751264959396277 39.727396343951995 21.65591868765561 0.5
A 22.129976859860754 23.031152865206504 20.30539686387328 2.5
E 20.39355016504433 24.121684332621037 18.87516490642445 0.5
E 23.866403554677177 21.940621397791972 21.73562882132211 0.5
E 23.793853380607704 23.250342413961768 18.452434137474345 0.5
E 20.466100339113805 22.81196331645124 22.158359590272216 0.5
P 22.812865765347016 25.270058191542446 21.183443378853326 0.5
P 21.447087954374492 20.792247538870562 19.427350348893235 0.5
A 3.049908355272943 17.097049975314654 35.20536992671465 2.5
E 2.1410351709049094 15.004890606140194 36.228511514527604 0.5
E 3.9587815396409765 19.189209344489115 34.1822283389017 0.5
E 4.8996759405505035 17.115872539442332 36.88703742997927 0.5
E 1.2001407699953823 17.078227411186976 33.52370242345003 0.5
P 4.464938183648763 15.728651318104209 33.66420942249989 0.5
P 1.634878526897123 18.4654486325251 36.74653043092942 0.5
A 0.3862632815861094 11.34282446603276 24.369578426340723 2.5
E 2.0724371167501414 9.534969789788569 23.99745040107246 0.5
E -1.2999105535779227 13.15067914227695 24.741706451608987 0.5
E 1.1505267635139607 11.567879667026014 26.739230613202167 0.5
E -0.3780002003417418 11.117769265039504 21.99992623947928 0.5
P 2.066358257413238 13.054844216528565 23.665114625913375 0.5
P -1.293831694241019 9.630804715536954 25.07404222676807 0.5
70
Properties=species:S:1:pos:R:3:radius:R:1
A 16.797838996518305 7.808810936920669 39.64781496073114 2.5
E 17.726903394344074 10.10288440076599 39.295584514611534 0.5
E 15.868774598692537 5.514737473075347 40.000045406850745 0.5
E 18.790395303038235 7.2150000916655355 41.0360181322465 0.5
E 14.805282689998377 8.402621782175803 38.25961178921578 0.5
P 15.607646276812561 8.60543859306773 41.696918586080855 0.5
P 17.98803171622405 7.012183280773609 37.598711335381424 0.5
A 22.837760763597743 22.486743905181427 14.926653477305123 2.5
E 22.902901461847627 24.903975627692027 14.292029581505414 0.5
E 22.77262006534786 20.069512182670827 15.561277373104833 0.5
E 20.411110549633015 22.69972504786743 15.488799162982033 0.5
E 25.26441097756247 22.273762762495423 14.364507791628213 0.5
P 22.240161040960157 21.885387245162892 12.574793630512612 0.5
P 23.43536048623533 23.088100565199962 17.278513324097634 0.5
A 36.40852032383238 25.564776740086756 21.73726243654561 2.5
E 38.54749359281268 26.178523833293195 20.59791707179941 0.5
E 34.269547054852076 24.95102964688032 22.876607801291808 0.5
E 35.61178244806957 27.92370865471765 21.512209155163003 0.5
E 37.205258199595185 23.205844825455863 21.962315717928217 0.5
P 35.38871538566382 25.009119716630057 19.5233872909309 0.5
P 37.42832526200093 26.120433763543456 23.95113758216032 0.5
A 8.372288953450933 35.32788112725606 1.5893927457495767 2.5
E 8.404856058201196 34.95201339935192 4.060761361478201 0.5
E 8.339721848700671 35.70374885516021 -0.8819758699790483 0.5
E 8.807248366059042 37.762609824272246 1.9539561576679283 0.5
E 7.937329540842825 32.89315243023988 1.224829333831225 0.5
P 10.83394483782467 34.902652220611515 1.4922810374848874 0.5
P 5.910633069077195 35.75311003390061 1.686504454014266 0.5
A 26.46318506347242 0.5872017087869853 25.148658715736453 2.5
E 25.14370253348245 2.601051941858544 24.475328862092066 0.5
E 27.78266759346239 -1.4266485242845732 25.82198856938084 0.5
E 28.448346915961594 1.4757184141612378 23.915909558895326 0.5
E 24.478023210983245 -0.30131499658726724 26.38140787257758 0.5
P 27.216908004925642 1.77250559515047 27.216739087602736 0.5
P 25.709462122019197 -0.5981021775764993 23.08057834387017 0.5
A 15.661825639141679 12.293790397415703 26.5606554506685 2.5
E 13.777781762296483 10.756127082293979 27.14028481453049 0.5
E 17.545869515986872 13.831453712537428 25.98102608680651 0.5
E 16.843174539680085 11.639379827110858 28.664499927018888 0.5
E 14.480476738603272 12.948200967720549 24.45681097431811 0.5
P 16.804101194915717 10.434398471327441 25.340873412811344 0.5
P 14.51955008336764 14.153182323503966 27.780437488525653 0.5
A 16.774104719528474 39.01300804831133 22.574951599578593 2.5
E 14.859004614344645 37.60918724451605 21.792852668524283 0.5
E 18.689204824712302 40.416828852106605 23.357050530632904 0.5
E 15.2969983778733 41.02997244416539 22.57156319302598 0.5
E 18.251211061183646 36.99604365245727 22.578340006131207 0.5
P 16.14121575409553 38.55350638706463 24.94946413497287 0.5
P 17.406993684961417 39.472509709558025 20.200439064184316 0.5
A 22.216433764393656 22.876379056509467 19.945207827494453 2.5
E 22.108378720379072 23.671955458780673 22.312776685123012 0.5
E 22.32448880840824 22.080802654238262 17.577638969865895 0.5
E 21.33072200314065 20.64839774021231 20.653454910234128 0.5
E 23.102145525646662 25.104360372806624 19.23696074475478 0.5
P 19.88108822605431 23.68456062174117 19.567049429229215 0.5
P 24.551779302733003 22.068197491277765 20.323366225759692 0.5
A 2.7708400671624926 17.503357055164162 35.34015649107471 2.5
E 3.9187050206396052 19.38846126791521 34.16593838712316 0.5
E 1.62297511368538 15.618252842413115 36.514374595026254 0.5
E 2.732166970768986 18.841903109339242 37.451269669582196 0.5
E 2.8095131635559993 16.164811000989083 33.22904331256722 0.5
P 0.550274724688947 18.454501927368657 34.696407322621056 0.5
P 4.991405409636038 16.552212182959668 35.98390565952836 0.5
A 40.19530151132063 11.29524071702315 24.067905966082833 2.5
E 38.01435990804574 12.066263404673807 25.016071425395022 0.5
E 42.37624311459552 10.524218029372493 23.119740506770643 0.5
E 40.432515140234564 9.659569410911397 25.943621582219812 0.5
E 39.958087882406694 12.930912023134903 22.192190349945854 0.5
P 38.996458978974445 9.568943119999217 22.714143361655026 0.5
P 41.39414404366681 13.021538314047083 25.42166857051064 0.5
70
Properties=species:S:1:pos:R:3:radius:R:1
A 16.677659073137296 7.552052887355737 39.66838368096666 2.5
E 17.424977229710674 8.631977375647116 37.541113441329735 0.5
E 15.93034091656392 6.472128399064358 41.79565392060359 0.5
E 14.931654009234336 6.280549249975625 38.40951719997874 0.5
E 18.423664137040255 8.82355652473585 40.92725016195459 0.5
P 18.303384108215973 5.690053531899802 39.294249332636156 0.5
P 15.05193403805862 9.414052242811671 40.04251802929717 0.5
A 22.789916877038564 22.669224751979066 15.370767330013008 2.5
E 24.569418603743948 24.11223304190147 16.37131751859325 0.5
E 21.01041515033318 21.226216462056662 14.370217141432764 0.5
E 21.077202899921396 24.409752224120055 15.906654399562354 0.5
E 24.502630854155733 20.928697279838076 14.834880260463661 0.5
P 23.17719511970169 23.73613205532735 13.143274486293405 0.5
P 22.40263863437544 21.60231744863078 17.598260173732612 0.5
A 36.611195134476475 25.84844049751889 21.951395347549273 2.5
E 37.39153734853535 24.05724931061541 20.391683784176987 0.5
E 35.8308529204176 27.63963168442237 23.51110691092156 0.5
E 38.6465765345234 27.19886521114261 21.418877132670627 0.5
E 34.57581373442955 24.49801578389517 22.48391356242792 0.5
P 35.38714914461297 26.952065082599262 20.0715750928692 0.5
P 37.83524112433998 24.74481591243852 23.831215602229346 0.5
A 8.556378535887447 35.52631735610839 1.6188544830025615 2.5
E 9.984089201176731 36.72126904640952 -0.049597708121261075 0.5
E 7.1286678705981625 34.33136566580727 3.287306674126384 0.5
E 8.678571946896621 33.44793723670375 0.23487296232764265 0.5
E 8.434185124878272 37.604697475513035 3.0028360036774804 0.5
P 10.60496610456137 34.81749683079172 2.864190757413863 0.5
P 6.5077909672135235 36.23513788142507 0.3735182085912603 0.5
A 26.31318403543873 0.7133274175216716 25.513767644415406 2.5
E 24.12188333645797 -0.3715921433810906 26.034489060353803 0.5
E 28.504484734419492 1.7982469784244337 24.99304622847701 0.5
E 26.278558071618217 1.8514821187044608 27.73939225759817 0.5
E 26.347809999259244 -0.42482728366111766 23.288143031232643 0.5
P 27.516098117688927 -1.230265498329274 26.52640987550104 0.5
P 25.110269953188535 2.6569203333726175 24.50112541332977 0.5
A 15.427442391316836 12.413274523786336 26.9738634014326 2.5
E 15.134619862651604 10.558924039605989 28.624814414796138 0.5
E 15.720264919982068 14.267625007966684 25.32291238806906 0.5
E 16.04100242989944 13.970059655942677 28.831271307992534 0.5
E 14.813882352734232 10.856489391629996 25.116455494872664 0.5
P 17.833226888265905 11.790535144818731 26.701105963179433 0.5
P 13.021657894367765 13.036013902753941 27.246620839685765 0.5
A 16.5676660608047 39.60143448654833 23.56277853108148 2.5
E 17.52267112638348 39.981328018287535 25.841735799057616 0.5
E 15.612660995225925 39.22154095480912 21.283821263105345 0.5
E 15.28527169243198 37.63735891029049 24.42757435363904 0.5
E 17.85006042917742 41.56551006280617 22.69798270852392 0.5
P 14.645836201351877 41.100797029527776 24.11819005061038 0.5
P 18.489495920257525 38.10207194356888 23.00736701155258 0.5
A 22.41350346583796 22.925132444004724 19.731193840344762 2.5
E 24.662359087726827 23.896600822632053 19.23229747713262 0.5
E 20.16464784394909 21.953664065377396 20.230090203556905 0.5
E 22.127726394590933 24.550896272837875 21.60875167924282 0.5
E 22.699280537084984 21.299368615171574 17.853636001446706 0.5
P 21.35947317336597 24.557045787961826 18.15770123458951 0.5
P 23.467533758309948 21.293219100047622 21.304686446100014 0.5
A 2.2380626953397798 17.59898273696832 35.49675288926937 2.5
E 0.11266935291221891 18.48326353244952 36.47181730494052 0.5
E 4.363456037767341 16.71470194148712 34.52168847359821 0.5
E 3.0671460747155015 17.059897422095062 37.79283820417631 0.5
E 1.4089793159640582 18.13806805184158 33.20066757436242 0.5
P 1.2156518728188486 15.323585079847366 35.331702557670376 0.5
P 3.260473517860711 19.874380394089275 35.66180322086836 0.5
A 39.96068698531562 10.856478685167906 23.981559079282174 2.5
E 39.79160628687146 10.772686184438832 21.48869114570949 0.5
E 40.12976768375977 10.940271185896979 26.47442701285486 0.5
E 40.56529074591923 8.43102769055197 24.022077783361738 0.5
E 39.35608322471201 13.281929679783842 23.94104037520261 0.5
P 42.380576654304136 11.456617243784066 23.79725579557701 0.5
P 37.5407973163271 10.256340126551745 24.16586236298734 0.5
70
Properties=species:S:1:pos:R:3:radius:R:1
A 16.481240596816484 7.484756933675969 39.291427626755905 2.5
E 16.000274663038663 9.897819765525895 39.733920044871695 0.5
E 16.962206530594305 5.071694101826043 38.848935208640114 0.5
E 16.36463072174014 7.011864452409925 41.743523635927865 0.5
E 16.597850471892826 7.957649414942014 36.839331617583944 0.5
P 14.030715365854716 7.033646669209763 39.08789477507511 0.5
P 18.93176582777825 7.935867198142176 39.4949604784367 0.5
A 22.413019185322504 23.103860646202595 16.14267618842207 2.5
E 23.00086117289617 20.835759275820994 17.01454657518767 0.5
E 21.82517719774884 25.371962016584195 15.27080580165647 0.5
E 21.895478783114754 23.86343308519721 18.467585141908774 0.5
E 22.930559587530254 22.344288207207978 13.817767234935362 0.5
P 24.787170345153807 23.831023546516633 16.43360639771425 0.5
P 20.0388680254912 22.376697745888556 15.851745979129888 0.5
A 36.98320817518884 26.686013068766503 21.89846747591896 2.5
E 39.13462263577274 26.320263581279917 20.678777707496803 0.5
E 34.83179371460494 27.051762556253088 23.118157244341116 0.5
E 37.010979350713846 29.09357170563641 21.22549632360783 0.5
E 36.95543699966384 24.278454431896595 22.57143862823009 0.5
P 35.71016277906176 26.120426008769268 19.822541972206643 0.5
P 38.25625357131592 27.251600128763737 23.974392979631276 0.5
A 8.78367623685614 35.8419333103057 2.1332089576560564 2.5
E 8.020911779674536 34.43038039488373 4.05042275632956 0.5
E 9.546440694037743 37.25348622572767 0.2159951589825524 0.5
E 9.13420818390443 37.76661547030901 3.6897197790329663 0.5
E 8.43314428980785 33.917251150302384 0.5766981362791468 0.5
P 11.13852607006396 35.098214983297005 2.522522858143055 0.5
P 6.428826403648319 36.58565163731439 1.7438950571690577 0.5
A 26.197532155899196 1.2853866396737874 25.64549161396108 2.5
E 25.302551991800627 0.6706226575272152 23.39358669764579 0.5
E 27.092512319997766 1.9001506218203597 27.89739653027637 0.5
E 28.076557768237734 -0.33530425010409015 25.341150049322973 0.5
E 24.31850654356066 2.906077529451665 25.94983317859919 0.5
P 27.582549576022668 3.0868933107815772 24.603234227367807 0.5
P 24.812514735775725 -0.5161200314340026 26.687749000554355 0.5
A 15.09529202809085 12.545642470280818 27.907755739030616 2.5
E 17.033035581630223 11.799423266287794 29.299986617982977 0.5
E 13.157548474551474 13.291861674273841 26.515524860078255 0.5
E 14.908652652742196 14.625495526578819 29.28230184876182 0.5
E 15.281931403439502 10.465789413982817 26.533209629299414 0.5
P 16.663831369097608 13.714987656186047 26.351376552612923 0.5
P 13.526752687084093 11.376297284375589 29.46413492544831 0.5
A 16.442537280473466 39.97384718833891 24.298569237940608 2.5
E 17.19029820764611 42.30561102446455 23.79485204711815 0.5
E 15.694776353300824 37.64208335221327 24.802286428763065 0.5
E 18.617161763271838 39.52459414570749 25.44712487982299 0.5
E 14.267912797675095 40.42310023097033 23.150013596058226 0.5
P 15.461791668906763 40.75554349523985 26.461227077075037 0.5
P 17.42328289204017 39.19215088143797 22.13591139880618 0.5
A 22.471988904642274 22.66111775418867 19.914888803471808 2.5
E 23.727531843448112 21.926635753164543 17.88162833835993 0.5
E 21.216445965836435 23.395599755212796 21.948149268583684 0.5
E 24.299864117446095 24.277269563111318 20.459797545312135 0.5
E 20.644113691838452 21.04496594526602 19.36998006163148 0.5
P 21.31765613839471 24.421398845573854 18.566213029210402 0.5
P 23.626321670889837 20.900836662803485 21.263564577733213 0.5
A 1.8499068137154775 17.450620201533283 35.43467063442805 2.5
E 2.123477270409519 14.966546842897774 35.50204091082498 0.5
E 1.5763363570214357 19.934693560168792 35.36730035803112 0.5
E 4.134761592288788 17.728714165463952 36.41042797519281 0.5
E -0.4349479648578334 17.172526237602614 34.458913293663294 0.5
P 2.826942046475893 17.49582303488378 33.13394056381956 0.5
P 0.8728715809550616 17.405417368182786 37.73540070503655 0.5
A 39.63530411221315 10.410311856126683 23.74752291627959 2.5
E 41.220775034382896 10.00748724046273 25.638029272780162 0.5
E 38.0498331900434 10.813136471790635 21.857016559779016 0.5
E 41.56808494838929 10.708688299675693 22.190175897389782 0.5
E 37.702523276037006 10.111935412577672 25.304869935169396 0.5
P 39.61000205174105 7.96108670785021 23.2468673672385 0.5
P 39.66060617268525 12.859537004403155 24.248178465320677 0.5
70
Properties=species:S:1:pos:R:3:radius:R:1
A 16.459297760873778 7.57068531247666 38.63125335805752 2.5
E 18.251323799803405 8.772813905557536 39.89360414983289 0.5
E 14.66727172194415 6.368556719395784 37.36890256628215 0.5
E 17.11164723841633 5.429332331053981 39.74437849392612 0.5
E 15.806948283331224 9.712038293899338 37.51812822218892 0.5
P 14.842794486844161 8.039187451906054 40.4798806624112 0.5
P 18.075801034903392 7.102183173047265 36.782626053703844 0.5
A 22.205021283847778 23.773118106719394 16.734534858612804 2.5
E 20.130553867888548 24.2834550149403 15.436019868236809 0.5
E 24.279488699807008 23.262781198498487 18.0330498489888 0.5
E 21.456920916027777 25.330251179897274 18.541654786034172 0.5
E 22.95312165166778 22.215985033541514 14.927414931191436 0.5
P 21.027341030217265 21.885025727484905 17.873910296159902 0.5
P 23.38270153747829 25.661210485953884 15.595159421065707 0.5
A 37.67627477086512 27.288787817686472 21.539557674406353 2.5
E 40.16897550857796 27.297566000448853 21.348859022829515 0.5
E 35.18357403315228 27.28000963492409 21.73025632598319 0.5
E 37.63307914692374 29.74730766398244 21.08809969912945 0.5
E 37.7194703948065 24.830267971390505 21.991015649683256 0.5
P 37.49032539528631 26.835353027582983 19.088064308956305 0.5
P 37.86222414644393 27.742222607789962 23.9910510398564 0.5
A 9.067979819630342 36.16411836037357 2.774207148926044 2.5
E 11.559264612275886 36.14175679269963 2.9815716642705943 0.5
E 6.5766950269847975 36.18647992804751 2.566842633581494 0.5
E 9.258496643575851 37.41957843148534 0.6207161808378046 0.5
E 8.877462995684832 34.9086582892618 4.927698117014284 0.5
P 9.152852793695304 34.002332068869464 1.5214196138115827 0.5
P 8.983106845565379 38.32590465187768 4.026994684040505 0.5
A 25.925391791513757 2.0851995752639585 25.476153310586458 2.5
E 25.094628819063917 1.7518549384949373 23.141905201078107 0.5
E 26.756154763963597 2.41854421203298 27.81040142009481 0.5
E 28.282876445387437 2.0158626528320926 24.647022140060677 0.5
E 23.567907137640077 2.1545364976958243 26.30528448111224 0.5
P 25.879577052006923 4.561905804174582 25.138770345220816 0.5
P 25.97120653102059 -0.3915066536466649 25.8135362759521 0.5
A 14.470377246667551 13.06014501371042 28.786957940863307 2.5
E 16.399863581530106 14.533857316962617 28.190925617224995 0.5
E 12.540890911804995 11.586432710458222 29.38299026450162 0.5
E 12.891273545909518 14.72902885374881 27.801433597830155 0.5
E 16.049480947425586 11.39126117367203 29.77248228389646 0.5
P 14.653445501236344 11.923043973476199 26.56806469456521 0.5
P 14.287308992098758 14.19724605394464 31.005851187161404 0.5
A 16.298712709598185 0.3518889560359217 24.59320858488373 2.5
E 14.73420096404648 2.2779279691497036 24.8976370953653 0.5
E 17.86322445514989 -1.5741500570778602 24.28878007440216 0.5
E 18.00531545575216 1.8931761275266619 23.61242271538042 0.5
E 14.592109963444209 -1.1893982154548184 25.57399445438704 0.5
P 17.24201015200437 0.7578539483213996 26.872546725701845 0.5
P 15.355415267192003 -0.05407603624955626 22.313870444065614 0.5
A 22.714564252627 22.478423968808666 20.360584062486694 2.5
E 20.410262685571137 22.289610105852148 19.409509084780083 0.5
E 25.018865819682862 22.667237831765185 21.311659040193305 0.5
E 23.43841301391958 23.77503310947309 18.3494033875793 0.5
E 21.99071549133442 21.181814828144244 22.371764737394088 0.5
P 22.06939973187327 24.607544458940964 21.501026380037082 0.5
P 23.35972877338073 20.34930347867637 19.220141744936306 0.5
A 1.3013255511106663 17.416465261144708 35.584961098785485 2.5
E 0.8727886980332569 16.150872200315636 33.471993903125274 0.5
E 1.7298624041880757 18.68205832197378 37.697928294445695 0.5
E 2.4204119273629257 19.226963198800988 34.27357141595689 0.5
E 0.18223917485840668 15.605967323488429 36.89635078161408 0.5
P -0.8927578219728294 18.587093905132207 35.32878395336675 0.5
P 3.495408924194162 16.24583661715721 35.84113824420422 0.5
A 38.98174769096128 10.421043367103026 23.587527295086012 2.5
E 38.3339872051857 8.012970229130843 23.409791211961956 0.5
E 39.629508176736856 12.82911650507521 23.76526337821007 0.5
E 40.814102169975854 9.81097447349655 25.175070367978424 0.5
E 37.1493932119467 11.031112260709502 21.9999842221936 0.5
P 40.55428812487791 10.13997450146639 21.66447844587112 0.5
P 37.40920725704465 10.702112232739662 25.510576144300906 0.5
70
Properties=species:S:1:pos:R:3:radius:R:1
A 16.366382088535246 7.405419568260844 38.32150462104238 2.5
E 16.484300576502704 6.6120811746186545 40.68935373434518 0.5
E 16.24846360056779 8.198757961903034 35.953655507739576 0.5
E 14.770764873529494 5.558005770805453 37.781997471739494 0.5
E 17.961999303541 9.252833365716235 38.861011770345264 0.5
P 14.445418545577459 8.891244744432274 38.91498807698903 0.5
P 18.287345631493036 5.919594392089413 37.728021165095726 0.5
A 22.335010085125457 24.568490186921036 17.4349922827921 2.5
E 23.675789954788588 26.524501760281876 16.64358337079735 0.5
E 20.994230215462327 22.612478613560196 18.226401194786845 0.5
E 23.98317685589226 24.183137228466123 19.27484265528175 0.5
E 20.686843314358654 24.95384314537595 15.595141910302448 0.5
P 21.017491342622574 26.076973472306932 18.931194989936127 0.5
P 23.65252882762834 23.06000690153514 15.93878957564807 0.5
A 38.26907685305996 27.21825472784292 21.237107881966573 2.5
E 38.49343180659491 29.219685601632484 19.755912650990474 0.5
E 38.044721899525 25.216823854053352 22.71830311294267 0.5
E 35.94466629572229 27.919762663624986 21.832928473228794 0.5
E 40.59348741039762 26.51674679206085 20.64128729070435 0.5
P 37.37645127883434 25.89456251532643 19.313294348704662 0.5
P 39.161702427285576 28.541946940359406 23.160921415228483 0.5
A 9.10833325617499 36.791140700149526 3.498997125392901 2.5
E 7.418295486499828 36.67330412066888 1.66055025980021 0.5
E 10.798371025850154 36.90897727963017 5.337443990985593 0.5
E 7.434926851168955 37.9326453061225 4.964151806041718 0.5
E 10.781739661181026 35.64963609417655 2.0338424447440846 0.5
P 8.337954556601812 34.57008649660593 4.349546879472673 0.5
P 9.87871195574817 39.01219490369312 2.6484473713131296 0.5
A 25.507453543536347 3.0455492319739013 25.421512399584476 2.5
E 26.38894219862475 3.332546108158235 23.099743560097913 0.5
E 24.625964888447943 2.7585523557895675 27.743281239071038 0.5
E 27.833068320304825 3.2073849850823053 26.32446594162961 0.5
E 23.181838766767868 2.8837134788654972 24.51855885753934 0.5
P 25.253497521700957 5.5237425218680105 25.63142751789965 0.5
P 25.761409565371736 0.5673559420797925 25.211597281269302 0.5
A 14.026253187224578 13.741081563878113 29.08649965337892 2.5
E 13.707452486325113 11.315016906853728 28.57407756852799 0.5
E 14.345053888124042 16.1671462209025 29.598921738229848 0.5
E 11.559814948569702 13.998205468032273 29.403626935102455 0.5
E 16.492691425879453 13.483957659723954 28.769372371655383 0.5
P 14.281299316398982 13.195098434239949 31.512783621537526 0.5
P 13.771207058050173 14.287064693516278 26.66021568522031 0.5
A 16.498562135624773 1.2106883527306656 24.958322700596266 2.5
E 16.89780761364086 1.482160342414532 27.411260940157256 0.5
E 16.099316657608686 0.9392163630467991 22.505384461035277 0.5
E 14.72259171465718 2.9676680434873948 25.05293469833629 0.5
E 18.274532556592366 -0.5462913380260637 24.863710702856242 0.5
P 18.212193400550714 2.968336020804462 24.48488573247606 0.5
P 14.784930870698833 -0.5469593153431307 25.431759668716474 0.5
A 22.88020055281354 22.682838720703995 20.599632483274394 2.5
E 20.695581554769618 22.610963863803715 21.813005401354992 0.5
E 25.064819550857464 22.754713577604274 19.386259565193797 0.5
E 21.669088164524226 23.02340407688482 18.439257048054422 0.5
E 24.091312941102856 22.34227336452317 22.760007918494367 0.5
P 22.983382994721126 25.158489997260386 20.932054113989057 0.5
P 22.777018110905956 20.207187444147603 20.26721085255973 0.5
A 0.8380155520915321 17.556705772477336 36.18821075091304 2.5
E 0.3920987365413534 19.46625744541418 37.73894303019079 0.5
E 1.283932367641711 15.647154099540492 34.6374784716353 0.5
E 0.23965516691737665 19.001175804543603 34.23744905969677 0.5
E 1.4363759372656877 16.11223574041107 38.138972442129315 0.5
P 3.2240421745465455 18.27581545454735 35.98881611184433 0.5
P -1.5480110703634815 16.837596090407324 36.38760538998176 0.5
A 38.25314602031725 10.392673140387089 23.778577168981794 2.5
E 40.19424235580333 9.989890284813091 22.255451767835197 0.5
E 36.31204968483117 10.795455995961087 25.30170257012839 0.5
E 39.50312134580861 9.315192556884487 25.65650083032628 0.5
E 37.0031706948259 11.470153723889691 21.90065350763731 0.5
P 39.21215942065382 12.612313102955424 24.413787161460146 0.5
P 37.29413261998069 8.173033177818754 23.143367176503443 0.5
70
Properties=species:S:1:pos:R:3:radius:R:1
A 16.57879207777035 7.294656285697765 38.159793217084996 2.5
E 14.479803309723954 6.5174038696745535 39.27340214009224 0.5
E 18.677780845816745 8.071908701720975 37.046184294077754 0.5
E 15.34829595968874 7.515821228345414 35.99485317830103 0.5
E 17.809288195851956 7.073491343050115 40.32473325586896 0.5
P 16.00422662892979 9.660446798386902 38.72804474156065 0.5
P 17.153357526610908 4.928865773008628 37.59154169260934 0.5
A 22.81099902318169 25.663021958227997 18.568014725310725 2.5
E 24.84871061611665 26.54356466648718 17.418068638335207 0.5
E 20.77328743024673 24.782479249968816 19.717960812286243 0.5
E 24.083660268736974 23.626883378316002 19.264055699288473 0.5
E 21.538337777626406 27.699160538139992 17.871973751332977 0.5
P 23.502421338471258 26.815750990709528 20.675893032897303 0.5
P 22.119576707892122 24.510292925746466 16.460136417724147 0.5
A 39.473337775399045 27.075598054871314 20.959168296633408 2.5
E 38.10720826879029 28.784422003832 19.749370428131684 0.5
E 40.8394672820078 25.36677410591063 22.16896616513513 0.5
E 38.61327478334536 25.300536767261583 19.4231184683632 0.5
E 40.33340076745273 28.850659342481045 22.495218124903616 0.5
P 41.38225941362115 27.498774302654308 19.40130436084192 0.5
P 37.56441613717694 26.65242180708832 22.517032232424896 0.5
A 8.97203007047476 37.07270423899438 4.117257853403543 2.5
E 10.132524203730727 38.52003298215455 5.793113717104504 0.5
E 7.811535937218794 35.62537549583422 2.4414019897025816 0.5
E 8.305891113797736 39.10530439216355 2.8231189475151877 0.5
E 9.638169027151784 35.04010408582521 5.411396759291899 0.5
P 11.083785799027595 36.91850914646842 2.7880808086253914 0.5
P 6.860274341921926 37.22689933152034 5.446434898181694 0.5
A 25.66712572245356 3.315806147683877 25.321228395101382 2.5
E 28.057709103010723 4.0429890959548045 25.400702040718674 0.5
E 23.276542341896395 2.588623199412949 25.24175474948409 0.5
E 25.17793722986745 4.703070844553587 27.3426613718632 0.5
E 26.156314215039668 1.9285414508141667 23.299795418339563 0.5
P 25.123245478902618 5.264318816506641 23.85238781147361 0.5
P 26.2110059660045 1.3672934788611124 26.790068978729156 0.5
A 14.096491255310378 14.121630076030062 29.170810936489946 2.5
E 14.564433759914213 15.396399803661296 31.269856422871793 0.5
E 13.628548750706543 12.846860348398828 27.0717654501081 0.5
E 12.562236832033815 15.941867095429897 28.40739718375645 0.5
E 15.63074567858694 12.301393056630227 29.93422468922344 0.5
P 16.014066071853744 15.266924507484841 28.047775991246798 0.5
P 12.178916438767011 12.976335644575283 30.293845881733095 0.5
A 16.887660481176884 1.3250391385432134 25.452126959348256 2.5
E 17.63158173143205 -0.1791481988721093 27.305232900026773 0.5
E 16.143739230921717 2.829226475958536 23.59902101866974 0.5
E 16.309501590104833 3.0946939846710118 27.12067543699299 0.5
E 17.465819372248934 -0.4446157075845849 23.783578481703522 0.5
P 19.203327441275626 2.2501024766642446 25.273397134273516 0.5
P 14.571993521078141 0.3999758004221823 25.630856784422996 0.5
A 22.945642067767647 22.913201701084642 20.366772718861608 2.5
E 25.322366783238504 22.40326935770592 20.95085202173637 0.5
E 20.56891735229679 23.423134044463364 19.782693415986845 0.5
E 22.170286420127056 21.35447315186102 22.160982553164015 0.5
E 23.720997715408238 24.471930250308265 18.5725628845592 0.5
P 22.94744388413463 24.800086518717112 22.0067917548628 0.5
P 22.943840251400665 21.02631688345217 18.726753682860416 0.5
A 0.5443146235077105 17.725527011283095 37.324671118923604 2.5
E 2.2777174921255643 19.522004943953156 37.19057588225493 0.5
E -1.189088245110143 15.929049078613033 37.458766355592275 0.5
E -1.0214543693631453 19.13592229865828 35.97962368692933 0.5
E 2.1100836163785663 16.31513172390791 38.66971855091788 0.5
P 1.4352029195538047 16.708938514997747 35.22161004677455 0.5
P -0.34657367253838367 18.742115507568442 39.42773219107266 0.5
A 37.48430783481495 9.964234253901994 23.794353590310855 2.5
E 36.480702833843694 11.880958391508244 25.04692916980407 0.5
E 38.487912835786204 8.047510116295744 22.54177801081764 0.5
E 37.4292569702667 8.576817691849142 25.87330637612722 0.5
E 37.5393586993632 11.351650815954846 21.71540080449449 0.5
P 35.19525859892296 9.157237436275855 23.195179381917917 0.5
P 39.773357070706936 10.771231071528133 24.393527798703794 0.5
70
Properties=species:S:1:pos:R:3:radius:R:1
A 17.277907862531812 8.021722411224655 38.013616595057165 2.5
E 15.605816610061346 9.125914144555363 36.51866794729153 0.5
E 18.949999115002278 6.9175306778939465 39.5085652428228 0.5
E 19.084118259937462 9.460946857837035 37.056413903576704 0.5
E 15.471697465126162 6.5824979646122745 38.970819286537626 0.5
P 16.84005532603591 9.742011226603582 39.77398347385451 0.5
P 17.715760399027715 6.301433595845728 36.25324971625982 0.5
A 23.227629430120025 26.387044760047377 19.113322260203294 2.5
E 24.71769870691167 26.77120327456338 17.143013709217772 0.5
E 21.73756015332838 26.002886245531375 21.083630811188815 0.5
E 22.460997876816645 24.228140492903062 18.112618294594135 0.5
E 23.994260983423406 28.545949027191693 20.114026225812452 0.5
P 25.0828840250049 25.186397184348703 20.282285812726478 0.5
P 21.37237483523515 27.587692335746052 17.94435870768011 0.5
A 0.0718761165976943 26.673152287197304 20.164358381162444 2.5
E -2.2154775782230924 26.171689181922375 21.039885553120982 0.5
E 2.359229811418481 27.174615392472234 19.288831209203906 0.5
E -0.9321378133505106 27.589726137762085 18.06630013484734 0.5
E 1.0758900465458991 25.756578436632523 22.26241662747755 0.5
P -0.027969280189793083 28.944369390538345 21.204360191849077 0.5
P 0.17172151338518168 24.401935183856263 19.12435657047581 0.5
A 9.141414511021162 36.789917268164004 4.5639434126576965 2.5
E 9.804441757923042 38.306556709478265 2.690390724603369 0.5
E 8.478387264119283 35.27327782684974 6.437496100712024 0.5
E 6.963939563148108 36.333293468389385 3.423725206845961 0.5
E 11.318889458894217 37.24654106793862 5.704161618469432 0.5
P 10.175337971075562 34.85567335631388 3.364067265624269 0.5
P 8.107491050966763 38.72416118001413 5.7638195596911235 0.5
A 25.64876180658874 2.438979516278777 25.01806455042827 2.5
E 25.31997350408971 4.8298527999687195 24.365666517416912 0.5
E 25.977550109087773 0.04810623258883462 25.67046258343963 0.5
E 23.751984913487824 1.7726491513158762 23.53204932085407 0.5
E 27.545538699689658 3.1053098812416775 26.50407978000247 0.5
P 27.243796498981936 2.1394318805583556 23.11645061905417 0.5
P 24.053727114195546 2.738527151999198 26.91967848180237 0.5
A 14.105003356563067 13.868400021408252 29.18419257318104 2.5
E 12.780549780716859 15.03497046581788 30.954767655931807 0.5
E 15.429456932409275 12.701829576998625 27.413617490430273 0.5
E 13.541633262105913 15.687363124500573 27.56431993428011 0.5
E 14.668373451020221 12.049436918315932 30.80406521208197 0.5
P 16.149125872974277 15.125574085656496 29.88496108708704 0.5
P 12.060880840151857 12.61122595716001 28.48342405927504 0.5
A 16.95524018079678 1.1506236428329566 26.04953071370345 2.5
E 14.520109942932386 1.114869811055161 25.484851700323645 0.5
E 19.39037041866117 1.1863774746107523 26.614209727083256 0.5
E 16.7255756945084 3.493306077899445 26.891607451399445 0.5
E 17.184904667085156 -1.192058792233532 25.207453976007457 0.5
P 16.438137726367987 0.2785223459963818 28.334710002004385 0.5
P 17.47234263522557 2.0227249396695313 23.764351425402516 0.5
A 22.686259175551236 23.478583391916537 19.88052452305877 2.5
E 24.046622381078187 25.53148198118624 20.31066325791467 0.5
E 21.325895970024284 21.425684802646835 19.450385788202873 0.5
E 24.77983837333214 22.18085052812792 19.452955163933744 0.5
E 20.59267997777033 24.776316255705154 20.308093882183798 0.5
P 22.814079720331936 22.88571173934915 22.305842051118656 0.5
P 22.558438630770535 24.071455044483923 17.455206994998886 0.5
A 0.03249730507801607 17.993594340413996 37.84466968485587 2.5
E 0.4151799391716333 16.471555239552092 35.89866069797753 0.5
E -0.3501853290156012 19.5156334412759 39.79067867173421 0.5
E 0.5306834326199361 19.969899623226347 36.39690312513246 0.5
E -0.46568882246390403 16.017289057601644 39.292436244579285 0.5
P -2.387288756516799 18.15977016469682 37.23884709404569 0.5
P 2.4522833666728308 17.82741851613117 38.45049227566606 0.5
A 36.88688835913633 9.731588892962895 24.037158609517185 2.5
E 34.417485932265734 9.636343301124038 24.41528548161258 0.5
E 39.35629078600692 9.826834484801752 23.659031737421788 0.5
E 37.085725711306104 7.338605043544863 24.73292581469888 0.5
E 36.68805100696655 12.124572742380927 23.34139140433549 0.5
P 36.55145526365006 9.014262904545147 21.6658872069163 0.5
P 37.222321454622595 10.448914881380643 26.40843001211807 0.5
70
Properties=species:S:1:pos:R:3:radius:R:1
A 17.459023993000848 8.13779701006861 37.590556951506855 2.5
E 19.456580381741347 9.36662638260171 36.72467771800929 0.5
E 15.461467604260351 6.908967637535509 38.45643618500442 0.5
E 18.956308717081754 6.639570088245344 38.91850821031056 0.5
E 15.961739268919942 9.636023931891875 36.26260569270315 0.5
P 17.325207219626233 9.717447118138208 39.52363703449352 0.5
P 17.592840766375463 6.558146901999011 35.65747686852019 0.5
A 23.735891288690848 27.20143601586559 19.538703645313014 2.5
E 26.09373992514742 27.539014236396174 18.779367914174813 0.5
E 21.378042652234274 26.863857795335004 20.298039376451214 0.5
E 24.258969379695213 24.823444331597774 20.105752902665717 0.5
E 23.212813197686483 29.579427700133404 18.97165438796031 0.5
P 24.38159951867635 27.89511929703678 21.852113333879323 0.5
P 23.090183058705346 26.5077527346944 17.225293956746704 0.5
A 0.6515702711114079 26.79226465684149 19.397436822391498 2.5
E 0.14262076718523886 24.589702415439554 18.329874189473117 0.5
E 1.1605197750375769 28.994826898243424 20.46499945530988 0.5
E 1.6214312336725056 27.61193424675006 17.24394861098215 0.5
E -0.3182906914496899 25.972595066932918 21.550925033800844 0.5
P -1.5957259078007566 27.644826288707147 18.709833340639697 0.5
P 2.8988664500235726 25.93970302497583 20.0850403041433 0.5
A 9.702016732584289 36.140240709430785 4.794075957763146 2.5
E 7.967470593309968 34.73591270874604 3.6674826162147394 0.5
E 11.436562871858609 37.54456871011553 5.9206692993115535 0.5
E 9.330117624852633 34.88907560653368 6.9262759809693994 0.5
E 10.073915840315944 37.39140581232789 2.6618759345568934 0.5
P 11.46356172048463 34.493289358666246 4.134901850400061 0.5
P 7.940471744683946 37.78719206019532 5.453250065126232 0.5
A 25.48430923207094 1.7957368848107504 24.60684125768288 2.5
E 23.907724461202076 0.6437712895818559 23.045637962889785 0.5
E 27.060894002939808 2.947702480039645 26.168044552475976 0.5
E 26.817688470067218 -0.3088975203030191 24.813272429000094 0.5
E 24.150929994074666 3.9003712899245198 24.400410086365667 0.5
P 26.893734741966497 2.4982248122656405 22.6651846341175 0.5
P 24.074883722175386 1.0932489573558604 26.54849788124826 0.5
A 14.248939927628046 13.395847676431043 29.104502229527743 2.5
E 12.876665095164533 12.770805690713704 31.09853941581027 0.5
E 15.621214760091558 14.020889662148381 27.110465043245217 0.5
E 13.409420187467486 15.745319707017801 29.26320882476263 0.5
E 15.088459667788605 11.046375645844284 28.945795634292857 0.5
P 16.162593080649188 13.97834548207569 30.604044798563773 0.5
P 12.335286774606903 12.813349870786395 27.604959660491712 0.5
A 17.124450565672205 1.2435099041329147 26.72021242394866 2.5
E 15.978755359546552 1.6002357323335754 24.52701175411586 0.5
E 18.27014577179786 0.8867840759322541 28.913413093781458 0.5
E 16.647585182866603 3.6141153746652135 27.354900622802084 0.5
E 17.601315948477808 -1.127095566399384 26.085524225095234 0.5
P 14.954201293965806 0.5343016226128187 27.738564873781698 0.5
P 19.294699837378605 1.9527181856530107 25.70185997411562 0.5
A 22.27477755074617 24.22945800294529 19.284827286672297 2.5
E 22.99717456382263 21.83746723229834 19.36559057436164 0.5
E 21.55238053766971 26.62144877359224 19.204063998982953 0.5
E 24.333656901819474 24.893559199521537 20.537817876593195 0.5
E 20.215898199672864 23.565356806369042 18.031836696751398 0.5
P 23.495088319863008 24.525007920634636 17.123001236100315 0.5
P 21.05446678162933 23.933908085255943 21.44665333724428 0.5
A 40.23814570335686 17.940465414239455 37.53414582486331 2.5
E 38.14514584408329 19.107127829272155 38.247062649206406 0.5
E 42.331145562630425 16.773802999206755 36.82122900052021 0.5
E 40.69435199416288 19.765240966176794 35.88730946223303 0.5
E 39.781939412550834 16.115689862302116 39.18098218749359 0.5
P 41.5270318152032 19.1891018682974 39.27474330742146 0.5
P 38.94925959151051 16.69182896018151 35.79354834230516 0.5
A 36.427439366732116 9.967311994433897 24.410907243593467 2.5
E 35.495787679943405 7.695536316630038 24.881077855437976 0.5
E 37.35909105352083 12.239087672237757 23.94073663174896 0.5
E 38.70901557044312 8.978336180725973 24.153347800823273 0.5
E 34.14586316302111 10.956287808141822 24.66846668636366 0.5
P 36.007397510290296 9.634202238288504 21.96906311892102 0.5
P 36.847481223173936 10.300421750579291 26.852751368265913 0.5
70
Properties=species:S:1:pos:R:3:radius:R:1
A 17.135899781687275 7.680514503213568 37.14625531379372 2.5
E 19.462377235950076 6.767536619590378 37.20929529176222 0.5
E 14.809422327424475 8.593492386836758 37.08321533582523 0.5
E 16.23888069784497 5.439661572754689 37.79735815304189 0.5
E 18.03291886552958 9.921367433672447 36.495152474545556 0.5
P 17.3171714508197 8.309044158893583 39.559156276100545 0.5
P 16.95462811255485 7.0519848475335545 34.7333543514869 0.5
A 23.955844409095054 27.47909088097567 20.21848204966267 2.5
E 26.09447312021995 26.504632255457523 21.07094766369381 0.5
E 21.81721569797016 28.453549506493815 19.366016435631526 0.5
E 22.753427688047914 26.59453743565333 22.223914479667368 0.5
E 25.158261130142193 28.363644326298008 18.21304961965797 0.5
P 24.435908222455787 29.604648593558792 21.443856745655648 0.5
P 23.47578059573432 25.353533168392545 18.99310735366969 0.5
A 1.2808428801274112 27.457941395730675 18.576702311633543 2.5
E 3.7414744232021366 27.017081344428107 18.546127413572385 0.5
E -1.1797886629473142 27.898801447033243 18.6072772096947 0.5
E 1.7023921583296264 29.747620373991193 19.487562554787957 0.5
E 0.8592936019251961 25.168262417470157 17.66584206847913 0.5
P 1.4134649569967825 28.359613504469557 16.2487420900985 0.5
P 1.1482208032580399 26.556269286991792 20.904662533168587 0.5
A 9.90493397097059 35.957647466186295 4.649480802395824 2.5
E 8.894516651755513 38.00856818186198 5.6608071884070235 0.5
E 10.915351290185669 33.90672675051061 3.6381544163846247 0.5
E 12.151925870234415 36.64294979292808 5.504693130186404 0.5
E 7.657942071706766 35.27234513944451 3.7942684746052437 0.5
P 9.480570629395352 34.703022048392384 6.769818231993407 0.5
P 10.32929731254583 37.212272883980205 2.529143372798242 0.5
A 25.370002549948836 1.5358248382800266 24.528498764178494 2.5
E 25.078082840884704 0.9961614076880658 26.95203879172926 0.5
E 25.661922259012968 2.0754882688719873 22.104958736627726 0.5
E 27.566252374869137 0.34146948343155215 24.52708706964008 0.5
E 23.173752725028535 2.730180193128501 24.52991045871691 0.5
P 24.211870610143787 -0.5930900656148288 23.914942131114437 0.5
P 26.528134489753885 3.664739742174882 25.14205539724255 0.5
A 14.259987916450962 12.937284050653949 28.404144324595542 2.5
E 16.63237461210625 12.459964324278005 27.77649215572343 0.5
E 11.887601220795675 13.414603777029892 29.031796493467652 0.5
E 15.019524135599564 13.785890404943302 30.629671674969124 0.5
E 13.50045169730236 12.088677696364595 26.17861697422196 0.5
P 14.471851311304619 15.239898463505526 27.453838706571027 0.5
P 14.048124521597305 10.634669637802372 29.354449942620057 0.5
A 17.158180650725523 1.0285395379519582 27.68258273244546 2.5
E 17.18506863329425 -0.8514954949814486 26.034934313839045 0.5
E 17.131292668156796 2.908574570885365 29.330231151051876 0.5
E 14.848718029409099 0.3791308174993303 28.385896826248583 0.5
E 19.467643272041947 1.677948258404586 26.97926863864234 0.5
P 18.11508160544101 -0.4859691575473164 29.42631550271774 0.5
P 16.201279696010037 2.5430482334512328 25.938849962173183 0.5
A 22.004218025333422 24.91746822697332 18.759060383895058 2.5
E 24.325259088953672 24.20628986983841 18.16157086488073 0.5
E 19.683176961713173 25.62864658410823 19.356549902909386 0.5
E 21.188786569262003 22.587285435263226 18.364954182893484 0.5
E 22.81964948140484 27.247651018683413 19.15316658489663 0.5
P 22.449010023281144 24.356688857201625 21.15440724332912 0.5
P 21.5594260273857 25.478247596745014 16.363713524460994 0.5
A 0.5957637351479848 17.54826189420064 37.65483620468511 2.5
E 2.707401694496963 18.245717273295984 38.797001307815165 0.5
E -1.5158742242009933 16.850806515105294 36.51267110155506 0.5
E -0.28773741290512045 19.877390541146806 37.86598891568876 0.5
E 1.47926488320109 15.219133247254472 37.44368349368146 0.5
P 1.6009556820048807 18.130254798063145 35.44104456818714 0.5
P -0.4094282117089112 16.966268990338133 39.868627841183084 0.5
A 35.88450743265922 10.749632711271474 24.732382042804563 2.5
E 35.769836809862085 8.977048123338703 26.49158485285522 0.5
E 35.999178055456355 12.522217299204245 22.973179232753907 0.5
E 37.878634988443565 11.744809452451731 25.86511261318526 0.5
E 33.890379876874874 9.754455970091216 23.599651472423865 0.5
P 37.387938821026665 9.294446423390553 23.36412514878411 0.5
P 34.381076044291774 12.204818999152394 26.100638936825014 0.5
70
Properties=species:S:1:pos:R:3:radius:R:1
A 17.025017505682328 7.07889058719354 36.98572608771991 2.5
E 15.614131493739393 5.195179211285029 36.14249888608501 0.5
E 18.435903517625263 8.962601963102053 37.828953289354814 0.5
E 15.065145854132659 8.62187234614992 36.8180645209246 0.5
E 18.984889157231997 5.5359088282371625 37.15338765451522 0.5
P 16.37825342910097 6.512464295606414 39.333247650015586 0.5
P 17.671781582263687 7.645316878780667 34.638204525424236 0.5
A 24.158247057382386 27.74173384771956 20.709137787818786 2.5
E 21.735393491697703 27.195214632964532 20.993913747394743 0.5
E 26.58110062306707 28.288253062474585 20.42436182824283 0.5
E 23.999589022511124 29.411218398353466 22.563227581535727 0.5
E 24.31690509225365 26.07224929708565 18.855047994101845 0.5
P 24.753736962602993 25.96293141824683 22.361788292215316 0.5
P 23.56275715216178 29.52053627719229 19.056487283422257 0.5
A 2.149323215323898 27.772118255972252 18.122251754245344 2.5
E 3.1151169614459446 29.49252198905836 19.65765184384259 0.5
E 1.1835294692018516 26.051714522886144 16.586851664648098 0.5
E 2.773069489764743 29.17978287806181 16.152627196914956 0.5
E 1.5255769408830535 26.364453633882693 20.09187631157573 0.5
P 4.369274346559226 26.628137789836074 18.007684446403438 0.5
P -0.07062791591142936 28.91609872210843 18.23681906208725 0.5
A 9.4952154381374 35.583167977526244 4.525853809980223 2.5
E 9.795556096649332 37.63625673194981 3.1313567482035087 0.5
E 9.194874779625469 33.53007922310268 5.920350871756938 0.5
E 11.756737748449586 34.77813053132202 3.8276908274546573 0.5
E 7.233693127825214 36.38820542373047 5.224016792505789 0.5
P 10.517620606749448 36.76076777230725 6.479810409940134 0.5
P 8.472810269525352 34.40556818274524 2.571897210020312 0.5
A 25.223996941002667 1.077448712529141 24.618622310549085 2.5
E 26.19243112355791 -1.1251757765692894 25.297283193525093 0.5
E 24.255562758447425 3.2800732016275713 23.939961427573078 0.5
E 27.52143693357795 1.9411792613163394 24.14350230506963 0.5
E 22.926556948427386 0.21371816374194252 25.09374231602854 0.5
P 25.039864612028115 0.2697266693020296 22.2598767994117 0.5
P 25.40812926997722 1.8851707557562523 26.97736782168647 0.5
A 13.787764211353599 12.473987581328124 27.77262045039446 2.5
E 11.831725430343958 13.25085918610935 26.423404827571176 0.5
E 15.74380299236324 11.697115976546899 29.121836073217743 0.5
E 12.825693510284555 13.574217629223735 29.800898983498726 0.5
E 14.749834912422642 11.373757533432514 25.744341917290193 0.5
P 12.563700384042988 10.367814665494356 28.334495343299846 0.5
P 15.01182803866421 14.580160497161893 27.210745557489073 0.5
A 17.080359354584107 0.7468155440601812 28.441084656455324 2.5
E 18.233054475435463 2.8511201518930083 29.143363857214638 0.5
E 15.927664233732752 -1.357489063772646 27.73880545569601 0.5
E 18.859529184670134 -0.6028378114682275 29.564913173455448 0.5
E 15.301189524498083 2.09646889958859 27.3172561394552 0.5
P 15.755274951960157 0.7651986168328857 30.56094630018547 0.5
P 18.405443757208058 0.7284324712874768 26.321223012725177 0.5
A 21.741027659616318 25.09402134561359 18.479461007640918 2.5
E 23.05741018787697 23.596641922014385 19.987768635769907 0.5
E 20.424645131355664 26.591400769212797 16.97115337951193 0.5
E 23.865103167726353 26.082466377801715 17.606947595600733 0.5
E 19.616952151506283 24.105576313425466 19.351974419681103 0.5
P 21.814785880429213 23.353093064458786 16.686773515427568 0.5
P 21.667269438803423 26.834949626768395 20.272148499854268 0.5
A 0.8817340110980504 17.54029960288784 37.813586795413535 2.5
E 1.5464684903318024 19.773571933653127 36.907704480343575 0.5
E 0.21699953186429832 15.30702727212255 38.719469110483494 0.5
E 0.8296706600938918 18.493097148788802 40.124315304781916 0.5
E 0.933797362102209 16.587502056986875 35.502858286045154 0.5
P -1.5277093851245187 18.135842660242865 37.51373518671987 0.5
P 3.2911774073206193 16.94475654553281 38.1134384041072 0.5
A 35.55502089203876 11.341496746476828 25.025605481899433 2.5
E 34.63368946502169 9.990040832810289 26.916297237581993 0.5
E 36.476352319055835 12.692952660143368 23.134913726216872 0.5
E 33.758365198173564 13.045780160100984 25.368309966473163 0.5
E 37.35167658590396 9.637213332852673 24.682900997325703 0.5
P 37.029190732759986 12.573967825026306 26.624929814624547 0.5
P 34.08085105131754 10.10902566792735 23.42628114917432 0.5
70
Properties=species:S:1:pos:R:3:radius:R:1
A 16.679781174364127 6.945904845065075 36.48979046467342 2.5
E 15.266025415218188 8.850106716966483 37.2805558436129 0.5
E 18.093536933510066 5.041702973163667 35.699025085733936 0.5
E 16.705149616354902 6.003243799009395 38.80511907944943 0.5
E 16.654412732373352 7.888565891120756 34.174461849897405 0.5
P 14.618070453716564 5.628556985425556 35.97603612545036 0.5
P 18.741491895011688 8.263252704704595 37.00354480389648 0.5
A 24.460516198929284 27.922507304803506 20.664820005202778 2.5
E 25.501331067277658 30.058201158654747 19.88667080842445 0.5
E 23.41970133058091 25.786813450952266 21.442969201981104 0.5
E 25.015200779088087 28.51383948515167 23.029698705901502 0.5
E 23.90583161877048 27.331175124455342 18.299941304504053 0.5
P 22.256195571988012 29.079718614420937 20.892487654495575 0.5
P 26.664836825870555 26.765295995186076 20.43715235590998 0.5
A 2.7682414161310414 27.807234406113245 17.59902822849356 2.5
E 3.336255223996634 29.58810504085155 15.938949888052635 0.5
E 2.2002276082654486 26.026363771374943 19.259106568934484 0.5
E 5.176857096081195 27.147712150091106 17.715651125516388 0.5
E 0.35962573618088856 28.466756662135385 17.48240533147073 0.5
P 3.123108743977043 29.433128060734767 19.464648501617 0.5
P 2.41337408828504 26.181340751491724 15.733407955370119 0.5
A 9.053982816061158 35.15601196327685 4.342107090180625 2.5
E 7.714964545690832 34.465553807241385 2.347038768949834 0.5
E 10.393001086431482 35.84647011931232 6.337175411411416 0.5
E 11.161235057663385 34.57507371992785 3.1288475352307983 0.5
E 6.946730574458931 35.736950206625856 5.5553666451304515 0.5
P 9.18250542837875 37.48748752441378 3.448964522644855 0.5
P 8.925460203743565 32.82453640213993 5.235249657716395 0.5
A 24.93706939580225 0.6192052771247831 24.56340880405178 2.5
E 26.795923123927256 2.282420843214976 24.394954661477687 0.5
E 23.078215667677245 -1.04401028896541 24.73186294662587 0.5
E 23.265799207974094 2.462222275652743 24.31816545059819 0.5
E 26.608339583630407 -1.223811721403177 24.808652157505367 0.5
P 24.976040881685318 0.3242437137786426 22.081176159951756 0.5
P 24.898097909919183 0.9141668404709237 27.0456414481518 0.5
A 13.202500123591687 12.240690147051174 27.790878145037226 2.5
E 14.840813574761683 10.737186083272306 26.64833511918865 0.5
E 11.564186672421691 13.744194210830042 28.9334211708858 0.5
E 12.678028092343546 10.425307909576306 29.42773990471595 0.5
E 13.726972154839828 14.056072384526042 26.154016385358503 0.5
P 15.016572372470776 13.073674457864115 29.295962532633347 0.5
P 11.388427874712598 11.407705836238232 26.285793757441105 0.5
A 16.818444441013185 0.7868220201330006 28.68917327480592 2.5
E 14.898814362374404 -0.8139624109017042 28.63907770072647 0.5
E 18.738074519651967 2.3876064511677053 28.73926884888537 0.5
E 16.82360365420603 0.7024439529979573 31.187743610879327 0.5
E 16.81328522782034 0.871200087268044 26.190602938732514 0.5
P 18.420004225630883 -1.1316069066567396 28.62107988928379 0.5
P 15.216884656395488 2.705250946922741 28.75726666032805 0.5
A 21.300261275541864 25.1217836198712 18.052191393942458 2.5
E 21.122598719160283 22.89449053529565 16.930763049614566 0.5
E 21.477923831923444 27.349076704446748 19.17361973827035 0.5
E 19.49213338606652 24.462602409331602 19.647858548136306 0.5
E 23.108389165017208 25.780964830410795 16.45652423974861 0.5
P 23.017558440088962 24.19731315140096 19.616238964051824 0.5
P 19.582964110994766 26.04625408834144 16.48814382383309 0.5
A 0.986162725812358 17.534992827162185 37.994073797838 2.5
E -1.015047527782865 18.518559685310976 39.12445150305747 0.5
E 2.987372979407581 16.551425969013394 36.863696092618525 0.5
E 2.24532744068005 19.661197232969016 38.373229498784674 0.5
E -0.2730019890553339 15.408788421355354 37.61491809689132 0.5
P 1.798358356025973 16.662152028230608 40.19145569409158 0.5
P 0.1739670955987429 18.407833626093762 35.79669190158442 0.5
A 35.75299042822966 11.293579426896741 25.390601252617067 2.5
E 35.54712943750292 9.190473566629933 26.726478115583156 0.5
E 35.9588514189564 13.39668528716355 24.05472438965098 0.5
E 35.391061257125536 9.992611168729553 23.28667899494094 0.5
E 36.11491959933378 12.59454768506393 27.494523510293195 0.5
P 33.28790857814829 11.660222757331846 25.58794395110517 0.5
P 38.21807227831103 10.926936096461636 25.193258554128963 0.5
70
Properties=species:S:1:pos:R:3:radius:R:1
A 16.05461635911666 7.164636943467625 35.61168290276225 2.5
E 16.27134599655333 7.44764940263667 38.08613884543168 0.5
E 15.837886721679991 6.881624484298579 33.13722696009282 0.5
E 15.03743800814039 4.907478306911324 35.958933664784304 0.5
E 17.071794710092934 9.421795580023925 35.26443214074019 0.5
P 13.781210001563712 8.201525962299822 35.69221051332808 0.5
P 18.328022716669608 6.127747924635428 35.531155292196416 0.5
A 25.118681040968696 27.702126213593395 20.18613133244518 2.5
E 26.642512745241675 27.746363508222508 22.16753992201373 0.5
E 23.594849336695717 27.657888918964282 18.204722742876626 0.5
E 23.205134887649272 27.08421139687057 21.671568102688354 0.5
E 27.03222719428812 28.32004103031622 18.700694562202003 0.5
P 24.602659669154903 30.124155185558415 20.528910565761777 0.5
P 25.634702412782488 25.280097241628376 19.84335209912858 0.5
A 2.8309463754534523 27.570500340949827 17.251066783463454 2.5
E 3.6115285948805464 29.928224206250274 17.537125472734132 0.5
E 2.050364156026358 25.21277647564938 16.965008094192775 0.5
E 5.171864148732462 26.75588608331372 17.577421789557544 0.5
E 0.490028602174442 28.385114598585936 16.924711777369364 0.5
P 2.4299533861619014 27.404543158975205 19.71311122585078 0.5
P 3.231939364745003 27.73645752292445 14.789022341076125 0.5
A 8.587998888135122 34.620020785023414 4.288965266308931 2.5
E 7.461895832314651 33.23719116257856 2.536916710200763 0.5
E 9.714101943955592 36.002850407468266 6.041013822417098 0.5
E 10.79297371794753 33.62626482253564 3.656086852303822 0.5
E 6.383024058322713 35.61377674751119 4.921843680314039 0.5
P 8.934377160498489 36.45038449814409 2.6216948113060363 0.5
P 8.241620615771755 32.78965707190274 5.956235721311825 0.5
A 24.54887920573674 0.24841210496510258 24.416477008710178 2.5
E 23.847349641295075 -0.9889888456665447 22.360584220262883 0.5
E 25.250408770178403 1.4858130555967497 26.472369797157473 0.5
E 22.692894923867392 -0.8294123855033751 25.69851316779451 0.5
E 26.404863487606086 1.3262365954335804 23.134440849625847 0.5
P 26.069792949401258 -1.6376242825740324 25.03266539647005 0.5
P 23.02796546207222 2.1344484925042373 23.800288620950305 0.5
A 12.701989516430206 12.158058743276428 27.906591284992082 2.5
E 14.147131540270198 13.517220354697569 29.4278553136768 0.5
E 11.256847492590214 10.798897131855286 26.385327256307363 0.5
E 13.072543670272847 10.149876130693553 29.34877442647901 0.5
E 12.331435362587566 14.166241355859302 26.464408143505153 0.5
P 10.695935142790015 12.766238246842791 29.2688921113297 0.5
P 14.708043890070398 11.549879239710064 26.544290458654466 0.5
A 16.51189386550661 0.7589475575860822 29.355565723074708 2.5
E 16.56948909421414 -1.6338832643758523 28.633732330178997 0.5
E 16.45429863679908 3.1517783795480168 30.07739911597042 0.5
E 17.89876675400443 0.18887838669581336 31.355966865733457 0.5
E 15.125020977008793 1.329016728476351 27.35516458041596 0.5
P 18.59114045520685 1.2054694471611498 28.041278151288964 0.5
P 14.43264727580637 0.3124256680110148 30.669853294860452 0.5
A 20.852245416768607 24.89594295249432 17.567647372649507 2.5
E 21.663641706097252 22.537099235575283 17.401839107428433 0.5
E 20.040849127439962 27.254786669413356 17.73345563787058 0.5
E 19.223346617723035 24.465462509398435 15.720656498124079 0.5
E 22.48114421581418 25.326423395590204 19.414638247174935 0.5
P 19.138091175128743 24.188452382052645 19.244290545362325 0.5
P 22.56639965840847 25.603433522935994 15.891004199936688 0.5
A 0.8164232342722854 17.178254239965867 38.14042797882202 2.5
E 1.0847570213960718 16.87821076482232 40.60780936233616 0.5
E 0.5480894471484989 17.478297715109413 35.67304659530787 0.5
E -0.8102213104831121 19.033520711002872 38.54293741531263 0.5
E 2.443067779027683 15.322987768928863 37.73791854233141 0.5
P 2.6957913471511583 18.826877979474148 38.13652134031584 0.5
P -1.0629448786065878 15.529630500457586 38.1443346173282 0.5
A 36.213052395659844 11.531476142306108 25.746292816020155 2.5
E 35.5919331339943 9.422709719487846 26.936803226214874 0.5
E 36.834171657325385 13.64024256512437 24.555782405825436 0.5
E 38.45800438016805 10.569235164402176 25.213110963651918 0.5
E 33.96810041115164 12.49371712021004 26.279474668388392 0.5
P 35.305086840123515 10.594888466518928 23.613594507416042 0.5
P 37.12101795119617 12.468063818093288 27.878991124624267 0.5
70
Properties=species:S:1:pos:R:3:radius:R:1
A 15.771770187930326 7.010548726987246 35.34228165538396 2.5
E 16.517922545464263 5.00552008203258 36.63577181470414 0.5
E 15.02561783039639 9.015577371941912 34.04879149606377 0.5
E 13.68907902523486 7.1245932940539705 36.720465735089256 0.5
E 17.85446135062579 6.896504159920522 33.96409757567866 0.5
P 16.93609582115203 8.499459056602223 36.97858598227094 0.5
P 14.607444554708621 5.52163839737227 33.70597732849697 0.5
A 25.978425322815955 27.620628643183124 19.248876987861312 2.5
E 25.02058999802285 29.80399449314373 20.000851093668192 0.5
E 26.93626064760906 25.43726279322252 18.49690288205443 0.5
E 24.60309630021147 27.73521652899818 17.16432914815938 0.5
E 27.35375434542044 27.50604075736807 21.333424827563245 0.5
P 27.83342439833056 28.83297479080352 18.091640949626363 0.5
P 24.12342624730135 26.40828249556273 20.40611302609626 0.5
A 2.525168480473484 27.05828879167569 17.523985172815404 2.5
E 1.3267390419316947 25.09763396885233 18.508667632584114 0.5
E 3.7235979190152735 29.018943614499047 16.539302713046695 0.5
E 4.6637572903668065 25.763760974551214 17.549196933766176 0.5
E 0.38657967058016185 28.352816608800165 17.498773411864633 0.5
P 2.035061570671436 26.203870629163514 15.226211289132799 0.5
P 3.015275390275532 27.912706954187865 19.82175905649801 0.5
A 7.92762502066481 34.299138827153 4.314249538280994 2.5
E 5.6941645396071925 33.225935338265415 3.9827551175237073 0.5
E 10.161085501722429 35.37234231604059 4.645743959038281 0.5
E 8.735334965240861 33.277324658503254 2.1803562770845972 0.5
E 7.119915076088758 35.32095299580275 6.448142799477392 0.5
P 7.1470746219161825 36.31262587111081 3.0546420602041087 0.5
P 8.708175419413438 32.28565178319519 5.57385701635788 0.5
A 24.113591630071394 39.83433023481569 24.594918635023223 2.5
E 24.02838611127707 38.249970062919644 26.526897637309755 0.5
E 24.19879714886572 41.41869040671173 22.66293963273669 0.5
E 21.639872189131022 39.61598126466736 24.306759209100075 0.5
E 26.587311071011765 40.052679204964015 24.88307806094637 0.5
P 23.762234052836774 41.75582095114617 26.155181843579754 0.5
P 24.464949207306013 37.91283951848521 23.034655426466692 0.5
A 12.331373282493702 12.186568058643823 28.383304306347686 2.5
E 12.09549608158634 14.430946621449083 29.459002597185556 0.5
E 12.567250483401065 9.942189495838564 27.307606015509815 0.5
E 13.215574721165337 11.252104483361219 30.526891403323283 0.5
E 11.447171843822067 13.121031633926428 26.23971720937209 0.5
P 10.00488456299766 11.603865138375305 29.088929947015185 0.5
P 14.657862001989745 12.769270978912342 27.677678665680187 0.5
A 16.00164799856472 1.091655945994088 29.540573543427776 2.5
E 17.134865865041352 1.7308060921361779 27.40578916139181 0.5
E 14.86843013208809 0.4525057998519981 31.675357925463743 0.5
E 16.94599305301194 3.123196019428322 30.650103781038222 0.5
E 15.057302944117502 -0.9398841274401459 28.43104330581733 0.5
P 13.983225425058563 2.4009809708513083 28.86113385217961 0.5
P 18.02007057207088 -0.21766907886313236 30.220013234675942 0.5
A 20.542455344925443 25.269755467018534 16.99928090409132 2.5
E 20.008576973174407 24.331432274334226 19.254169697412948 0.5
E 21.07633371667648 26.208078659702842 14.744392110769697 0.5
E 22.523595461642138 23.753549260548716 16.83740880211441 0.5
E 18.56131522820875 26.78596167348835 17.161153006068233 0.5
P 19.11414945257868 23.517423213838963 15.931913136002747 0.5
P 21.970761237272207 27.022087720198105 18.0666486721799 0.5
A 0.32611789492729826 16.586393814142063 38.49841587745428 2.5
E -1.7236236008941492 16.202842882096057 39.87734607250948 0.5
E 2.3758593907487455 16.96994474618807 37.11948568239907 0.5
E -0.8756438654224459 15.739408512206921 36.47644046472849 0.5
E 1.5278796552770424 17.433379116077205 40.520391290180065 0.5
P -0.45126776976521743 18.907062808383415 37.988350246875136 0.5
P 1.103503559619814 14.265724819900711 39.00848150803342 0.5
A 36.5832142100455 12.157559059868284 25.789475501699417 2.5
E 34.84553146274079 10.497721226934086 26.47896592083481 0.5
E 38.32089695735021 13.817396892802481 25.099985082564025 0.5
E 38.365853737534984 10.688393474012122 26.74537758683556 0.5
E 34.80057468255601 13.626724645724446 24.833573416563276 0.5
P 36.81268095001286 11.001492085296364 23.584741013024527 0.5
P 36.35374747007813 13.313626034440203 27.99420999037431 0.5
70
Properties=species:S:1:pos:R:3:radius:R:1
A 16.052738206820955 7.0667046514320235 35.324579343492765 2.5
E 14.994150857304687 8.16678961649027 37.30427777838056 0.5
E 17.11132555633722 5.966619686373777 33.34488090860497 0.5
E 18.111858770030544 8.444157275214248 35.6602082686514 0.5
E 13.993617643611366 5.689252027649799 34.98895041833413 0.5
P 16.995826394432168 5.294012535217673 36.81392394146193 0.5
P 15.109650019209743 8.839396767646374 33.8352347455236 0.5
A 26.58558345490616 27.908071587016217 18.496529361382382 2.5
E 28.64369253929386 28.937707875666277 17.519781640701513 0.5
E 24.527474370518462 26.878435298366156 19.47327708206325 0.5
E 26.59525579275074 26.177364693309844 16.692489424474836 0.5
E 26.57591111706158 29.63877848072259 20.30056929828993 0.5
P 28.004771054429554 26.42668616749445 19.925306389538584 0.5
P 25.166395855382767 29.389457006537985 17.06775233322618 0.5
A 2.543231953876198 26.559114550030813 17.38714841477835 2.5
E 0.7147028297772429 27.846005943292866 16.268939228503115 0.5
E 4.371761077975153 25.27222315676876 18.505357601053582 0.5
E 3.5049155115284534 25.983735329864246 15.152399326414697 0.5
E 1.5815483962239427 27.13449377019738 19.621897503142 0.5
P 3.9509414328751737 28.623781422664003 17.461342267541706 0.5
P 1.1355224748772224 24.494447677397623 17.31295456201499 0.5
A 7.440416737955335 34.49603290146562 4.280719595908247 2.5
E 5.514731043997815 32.90183066475216 4.264787347323483 0.5
E 9.366102431912855 36.090235138179075 4.29665184449301 0.5
E 7.1568903381898545 34.86306409516339 1.8241160700032997 0.5
E 7.723943137720815 34.12900170776785 6.737323121813194 0.5
P 5.871548550782437 36.38648452245739 4.744233651753609 0.5
P 9.009284925128233 32.60558128047385 3.817205540062884 0.5
A 23.621250981213194 38.99172068729909 24.218120921331113 2.5
E 22.102117593944428 38.01294960207995 25.94561648266378 0.5
E 25.14038436848196 39.97049177251824 22.490625359998447 0.5
E 21.754895351103585 38.95349017357567 22.555215304713496 0.5
E 25.487606611322803 39.02995120102251 25.88102653794873 0.5
P 22.94379219010978 41.29183929088439 24.92558399160215 0.5
P 24.29870977231661 36.691602083713796 23.510657851060078 0.5
A 11.652763753845854 11.90699102995028 28.898483894033216 2.5
E 9.363227478220619 10.9855540667689 28.49976398547822 0.5
E 13.942300029471088 12.82842799313166 29.29720380258821 0.5
E 11.762212203165019 10.691021664043587 31.08009786953782 0.5
E 11.543315304526688 13.122960395856973 26.716869918528612 0.5
P 12.650784134167145 9.926493005700205 27.744541566009936 0.5
P 10.654743373524562 13.887489054200355 30.052426222056496 0.5
A 15.347761813802315 1.948594436842193 29.49023600124454 2.5
E 16.512729540162816 0.861209452324154 27.563984695733506 0.5
E 14.182794087441813 3.0359794213602322 31.416487306755574 0.5
E 15.706099601636712 4.189679820288576 28.441841832092145 0.5
E 14.989424025967917 -0.2924909466041896 30.538630170396935 0.5
P 13.165001124595133 1.736155740867338 28.290058691800596 0.5
P 17.530522503009497 2.161033132817048 30.690413310688484 0.5
A 20.386286697172366 25.57029214172726 16.688676388677422 2.5
E 18.82392741663619 24.759098204369245 18.463781420644885 0.5
E 21.94864597770854 26.381486079085278 14.91357135670996 0.5
E 20.75336963784045 27.681394050186334 17.976503569152754 0.5
E 20.019203756504282 23.45919023326819 15.40084920820209 0.5
P 22.303128785919657 24.50482833281859 17.888886069821872 0.5
P 18.469444608425075 26.635755950635932 15.48846670753297 0.5
A 0.2052754403946102 16.090225945945342 38.53391251524994 2.5
E -0.7089354735367182 15.15945771686062 36.40133451935482 0.5
E 1.1194863543259386 17.02099417503006 40.66649051114506 0.5
E 2.4308535833106006 15.071841544124226 38.02430959149187 0.5
E -2.02030270252138 17.108610347766458 39.043515439008004 0.5
P 0.8842602227161057 18.175067358104705 37.33290629065246 0.5
P -0.4737093419268853 14.005384533785977 39.734918739847416 0.5
A 36.88588655827122 12.984966066827507 25.799118661523586 2.5
E 35.00399954174042 12.291666569279434 27.291712733504284 0.5
E 38.767773574802014 13.67826556437558 24.30652458954289 0.5
E 38.509439364907216 11.831731225502129 27.31045108187892 0.5
E 35.26233375163522 14.138200908152886 24.287786241168252 0.5
P 36.61648436622985 10.87798120512291 24.48077225352966 0.5
P 37.155288750312586 15.091950928532103 27.11746506951751 0.5
70
Properties=species:S:1:pos:R:3:radius:R:1
A 16.107082171830843 7.003900073037066 35.44374382553026 2.5
E 17.74399670057939 8.701949221689857 34.61480479620922 0.5
E 14.470167643082295 5.305850924384275 36.272682854851304 0.5
E 17.995843890981067 5.501278642843735 36.0954400782406 0.5
E 14.218320452680619 8.506521503230397 34.792047572819925 0.5
P 16.162669884905423 8.056875821230507 37.710493057331576 0.5
P 16.051494458756263 5.9509243248436245 33.17699459372895 0.5
A 27.140216569738936 28.450449187373042 18.41573283470467 2.5
E 28.042277597356804 26.449200374450697 19.612097783718767 0.5
E 26.238155542121067 30.451698000295387 17.219367885690573 0.5
E 25.173593487169153 27.108306814460718 17.653468115636148 0.5
E 29.106839652308718 29.792591560285366 19.177997553773192 0.5
P 25.887747187455947 29.11652503861656 20.474291409735628 0.5
P 28.392685952021925 27.784373336129523 16.357174259673712 0.5
A 2.6853418838895897 26.50616972854144 17.252880103495496 2.5
E 1.1804445366076894 26.22519814658314 19.22932614229239 0.5
E 4.19023923117149 26.78714131049974 15.276434064698602 0.5
E 4.302954226532299 27.7850047728828 18.66635498416886 0.5
E 1.0677295412468801 25.22733468420008 15.839405222822133 0.5
P 3.855219776267271 24.376466486421435 17.84088505026863 0.5
P 1.5154639915119088 28.635872970661445 16.664875156722363 0.5
A 6.866548669853325 35.0789374091547 4.452078378550699 2.5
E 4.688313639170444 33.86703017378586 4.643319074968543 0.5
E 9.044783700536206 36.29084464452354 4.2608376821328555 0.5
E 5.665305615924567 37.10626677349924 3.617242601973029 0.5
E 8.067791723782081 33.05160804481015 5.28691415512837 0.5
P 6.616934414463861 35.898215445798414 6.800796374006806 0.5
P 7.116162925242788 34.25965937251098 2.103360383094593 0.5
A 23.007277010392734 38.75368159592239 23.770524572250093 2.5
E 22.381465878489756 36.49503398902206 24.64050814395101 0.5
E 23.633088142295712 41.01232920282271 22.900541000549175 0.5
E 20.845629302130774 38.870985964794066 22.520117090502964 0.5
E 25.168924718654694 38.63637722705071 25.02093205399722 0.5
P 21.918406213396185 39.818928362116395 25.75284889348541 0.5
P 24.096147807389283 37.68843482972838 21.788200251014775 0.5
A 11.341940793799678 10.96588776639664 29.65837569489253 2.5
E 13.165879707777728 9.31695283616184 29.20642389002065 0.5
E 9.518001879821627 12.61482269663144 30.110327499764413 0.5
E 9.730318043795657 9.528442893208746 28.398842309779557 0.5
E 12.953563543803698 12.403332639584535 30.917909080005504 0.5
P 10.7710476779322 9.755612660316944 31.770084769992067 0.5
P 11.912833909667155 12.176162872476338 27.546666619792994 0.5
A 14.861559886824757 2.452240828621016 29.804042540728318 2.5
E 16.751606690910343 1.1251819910704055 28.84663044552345 0.5
E 12.971513082739172 3.7792996661716263 30.761454635933188 0.5
E 14.018227446335102 2.915790039219017 27.496682030497716 0.5
E 15.704892327314413 1.9886916180230152 32.11140305095892 0.5
P 13.459235575838346 0.38486641380576936 29.90125136637543 0.5
P 16.26388419781117 4.519615243436263 29.706833715081206 0.5
A 20.178767881916936 25.846986581011254 16.674244192743338 2.5
E 21.63484618525258 26.83620195382901 18.44943120281753 0.5
E 18.722689578581292 24.857771208193498 14.899057182669146 0.5
E 18.691955716633103 24.87682196560545 18.4344061751127 0.5
E 21.66558004720077 26.817151196417058 14.914082210373977 0.5
P 18.793406716112464 27.927907907057836 16.650987471449394 0.5
P 21.56412904772141 23.766065254964673 16.69750091403728 0.5
A 0.9399669961305714 15.582334644402682 38.12158825822925 2.5
E 2.6508493006793232 15.018058997834022 39.85493032910625 0.5
E -0.7709153084181803 16.146610290971342 36.38824618735225 0.5
E -0.8695017778996204 15.344425015771558 39.83016127815406 0.5
E 2.7494357701607632 15.820244273033806 36.413015238304446 0.5
P 1.1606579469924745 18.00617292351596 38.692818072676594 0.5
P 0.7192760452686684 13.158496365289402 37.55035844378191 0.5
A 36.79097645231054 13.648225992833117 25.865243588084546 2.5
E 34.80761619485921 13.257300902413476 27.336113964032993 0.5
E 38.77433670976187 14.039151083252758 24.3943732121361 0.5
E 36.28210607319201 16.095627848718504 25.829535142805113 0.5
E 37.299846831429065 11.20082413694773 25.90095203336398 0.5
P 38.22531707657595 13.975948023659404 27.886447497662385 0.5
P 35.35663582804513 13.32050396200683 23.844039678506707 0.5
70
Properties=species:S:1:pos:R:3:radius:R:1
A 16.39513917191872 6.869313959976481 36.27889162186264 2.5
E 17.436736393814904 5.052015836523511 34.914156205075614 0.5
E 15.35354195002254 8.686612083429452 37.64362703864967 0.5
E 17.210546922585557 5.766857168396458 38.36927417605025 0.5
E 15.579731421251886 7.971770751556505 34.188509067675035 0.5
P 18.516503220706905 8.185374959016334 36.145482404356436 0.5
P 14.27377512313054 5.553252960936629 36.41230083936885 0.5
A 27.41937292551547 28.68533050486729 18.193130983973838 2.5
E 26.00398949950042 27.023083980819735 19.411172958067297 0.5
E 28.834756351530523 30.34757702891485 16.975089009880378 0.5
E 25.35864764400419 29.834205451647293 17.366391804545838 0.5
E 29.480098207026753 27.53645555808729 19.019870163401837 0.5
P 27.429426357861196 30.15741163372971 20.21374378175203 0.5
P 27.409319493169747 27.213249376004875 16.172518186195646 0.5
A 2.439151128152176 26.75356324791774 17.392745134438897 2.5
E 1.579559237870495 25.97428896262678 15.178285071478562 0.5
E 3.2987430184338566 27.5328375332087 19.60720519739923 0.5
E 4.776500039579387 26.24960584686711 16.66279513329061 0.5
E 0.10180221672496392 27.25752064896837 18.122695135587183 0.5
P 2.6580160371989514 29.074933215460746 16.490891695471465 0.5
P 2.2202862191054002 24.432193280374733 18.29459857340633 0.5
A 6.543145366750607 35.40154274503437 4.355418174305381 2.5
E 5.6751004583529925 37.72240685980186 4.687212987087417 0.5
E 7.411190275148221 33.08067863026688 4.023623361523345 0.5
E 4.95590637882684 35.08016763239204 2.4508472430485724 0.5
E 8.130384354674373 35.7229178576767 6.259989105562189 0.5
P 8.26859325997117 36.27349904999364 2.7703245587665166 0.5
P 4.817697473530044 34.5295864400751 5.940511789844246 0.5
A 22.34634824941317 38.758168933156576 23.5954602181734 2.5
E 21.014589072234166 38.37786472082315 21.514165861269372 0.5
E 23.678107426592177 39.13847314549 25.676754575077428 0.5
E 23.799080139816063 40.38172746345464 22.369235217081663 0.5
E 20.89361635901028 37.13461040285851 24.821685219265138 0.5
P 20.808171553254518 40.62080856678876 24.239343784213574 0.5
P 23.884524945571826 36.89552929952439 22.951576652133227 0.5
A 11.708719807972155 10.354058358258024 30.73135140229412 2.5
E 13.182107579146411 12.324534406819199 31.17446833697324 0.5
E 10.2353320367979 8.38358230969685 30.288234467615 0.5
E 13.530394162592515 8.820648946591634 31.49303251793895 0.5
E 9.887045453351796 11.887467769924415 29.96967028664929 0.5
P 10.836578178721965 10.480073112387045 33.07090034605852 0.5
P 12.580861437222346 10.228043604129004 28.391802458529714 0.5
A 14.743405912539336 2.6803997552290233 30.419351248580437 2.5
E 16.83070009756101 1.3054868962875252 30.366270032582037 0.5
E 12.656111727517661 4.055312614170521 30.472432464578837 0.5
E 13.474178916774887 0.793658237086442 29.380472392823123 0.5
E 16.012632908303786 4.567141273371605 31.45823010433775 0.5
P 14.212118967097133 1.7860725924780587 32.692655695320546 0.5
P 15.274692857981538 3.574726917979988 28.146046801840328 0.5
A 20.066863334453718 25.613743463633703 16.60668113270513 2.5
E 18.864387832871213 26.866196529208512 18.405406789003546 0.5
E 21.269338836036223 24.361290398058895 14.807955476406715 0.5
E 22.23255655376083 26.608479976962688 17.361844789734057 0.5
E 17.901170115146606 24.61900695030472 15.851517475676205 0.5
P 20.404243754663764 23.692321961832924 18.17011129247452 0.5
P 19.729482914243672 27.535164965434483 15.043250972935743 0.5
A 2.028407410569238 15.31767671173513 38.0362117400481 2.5
E 0.6147461312860967 15.398866116278624 35.97587922609654 0.5
E 3.4420686898523787 15.236487307191636 40.09654425399967 0.5
E 3.9677013455802266 14.521362687354884 36.67421944630871 0.5
E 0.08911347555824922 16.113990736115376 39.39820403378749 0.5
P 2.728907818196315 17.686071158436473 37.64890446700887 0.5
P 1.3279070029421605 12.949282265033787 38.423519013087336 0.5
A 36.672901890616984 14.18107251639903 25.764539925917003 2.5
E 36.201709737771424 11.859600302542312 26.563754987954564 0.5
E 37.144094043462545 16.50254473025575 24.96532486387944 0.5
E 38.35535218148017 13.283080475922942 24.148071146751832 0.5
E 34.9904515997538 15.07906455687512 27.381008705082174 0.5
P 34.88479144272208 13.947883632589082 24.032984564227313 0.5
P 38.461012338511885 14.414261400208979 27.496095287606693 0.5
70
Properties=species:S:1:pos:R:3:radius:R:1
A 16.280978542783398 7.068257789793577 36.89031834812107 2.5
E 17.368208010612502 5.560335328039166 35.21876160854542 0.5
E 15.193749074954294 8.576180251547989 38.56187508769672 0.5
E 16.984284068827137 5.5323987796721354 38.73327750069753 0.5
E 15.57767301673966 8.604116799915019 35.04735919554461 0.5
P 18.419504535452322 8.339991626083833 37.13403873773607 0.5
P 14.142452550114474 5.796523953503322 36.64659795850607 0.5
A 27.503171502470664 29.037433951898006 18.214838779547378 2.5
E 27.47648319725161 26.5697757474136 18.61477717505975 0.5
E 27.529859807689718 31.50509215638241 17.814900384035006 0.5
E 25.00529967229038 29.047819083672955 18.1122304512816 0.5
E 30.001043332650948 29.027048820123056 18.317447107813155 0.5
P 27.403551954408975 29.43812726963427 20.680507210372003 0.5
P 27.602791050532353 28.636740634161743 15.749170348722753 0.5
A 1.9118583992649618 26.780731854404618 17.794585132731 2.5
E 3.145540830015645 27.838047041035576 15.894555591861547 0.5
E 0.6781759685142787 25.72341666777366 19.694614673600455 0.5
E 3.136927756623928 28.247580440494428 19.406279984477564 0.5
E 0.6867890419059954 25.313883268314807 16.182890280984438 0.5
P 0.11540836385703646 28.507126890775446 17.588848775523555 0.5
P 3.708308434672887 25.05433681803379 18.000321489938447 0.5
A 5.96740909435918 35.34242154147215 4.120805455018111 2.5
E 5.42684640567581 34.31048179871981 1.9088171306973503 0.5
E 6.50797178304255 36.374361284224484 6.332793779338871 0.5
E 3.56238912744561 35.18079056916154 4.7839452498854484 0.5
E 8.37242906127275 35.50405251378276 3.457665660150773 0.5
P 6.384147547528761 33.07108365464908 5.078591060219848 0.5
P 5.550670641189599 37.61375942829522 3.163019849816374 0.5
A 22.0140573447998 38.456168903082784 23.449717709966162 2.5
E 22.6133335272361 36.81778234043268 21.659031381071063 0.5
E 21.414781162363496 40.09455546573289 25.24040403886126 0.5
E 22.36235872842439 36.68884928840318 25.183288454335596 0.5
E 21.665755961175208 40.223488517762384 21.716146965596728 0.5
P 24.41604697910912 39.121203376547115 23.645101808024975 0.5
P 19.61206771049048 37.79113442961845 23.25433361190735 0.5
A 11.774160745902288 10.131580225168591 31.185574931253655 2.5
E 12.066512585156223 12.084492176932523 29.652386974497887 0.5
E 11.481808906648352 8.178668273404659 32.71876288800942 0.5
E 14.092070586750575 9.3636172598576 30.649359625981678 0.5
E 9.456250905054 10.899543190479582 31.72179023652563 0.5
P 12.664005885115852 11.490391394009515 33.086050617930454 0.5
P 10.884315606688723 8.772769056327666 29.285099244576855 0.5
A 15.071037562773258 3.0544060470412058 30.818889954261817 2.5
E 17.141466864180526 4.133608705244351 31.7125588696892 0.5
E 13.000608261365992 1.9752033888380607 29.925221038834433 0.5
E 16.236284426961653 0.8427619594773397 30.790077188990598 0.5
E 13.905790698584862 5.266050134605072 30.847702719533036 0.5
P 14.292884458703758 2.614006169122591 33.15352604885042 0.5
P 15.849190666842757 3.4948059249598207 28.48425385967321 0.5
A 20.56009943248923 25.389474991597933 17.00229966682417 2.5
E 22.641709317675076 24.032381744766738 16.728076755123386 0.5
E 18.478489547303386 26.746568238429127 17.276522578524958 0.5
E 21.587161363783075 26.571003455545327 18.951436470173025 0.5
E 19.533037501195388 24.207946527650538 15.053162863475318 0.5
P 21.48856271942278 27.12506953188872 15.460979610337112 0.5
P 19.63163614555568 23.653880451307145 18.54361972331123 0.5
A 2.588746887201684 15.344143195617734 38.6893564543517 2.5
E 4.475017371365466 16.717945089144287 39.58638043280276 0.5
E 0.7024764030379029 13.970341302091182 37.79233247590064 0.5
E 3.7499020805834453 13.26073236527275 39.438434506950074 0.5
E 1.4275916938199227 17.42755402596272 37.94027840175333 0.5
P 1.4295651596645913 15.492695103531634 40.899385877956746 0.5
P 3.747928614738777 15.195591287703834 36.47932703074666 0.5
A 36.614548604160014 14.348544361440865 25.84237421485065 2.5
E 35.45035865524336 16.415648180565878 26.63088138907289 0.5
E 37.778738553076664 12.28144054231585 25.05386704062841 0.5
E 35.26196813744497 14.388638141691331 23.740251818355656 0.5
E 37.96712907087506 14.3084505811904 27.944496611345645 0.5
P 38.365316391132936 15.754060028284792 24.742675225875065 0.5
P 34.86378081718709 12.943028694596938 26.942073203826236 0.5
70
Properties=species:S:1:pos:R:3:radius:R:1
A 16.119853732429064 7.1711208942490225 37.12692253382688 2.5
E 18.592599841171968 6.856812704137907 37.31859163234376 0.5
E 13.64710762368616 7.485429084360138 36.935253435309995 0.5
E 15.757111805269941 5.312975914693314 38.75962444453599 0.5
E 16.48259565958819 9.029265873804732 35.49422062311777 0.5
P 16.18266277618939 8.813834380095342 39.01041594433856 0.5
P 16.05704468866874 5.528407408402703 35.243429123315195 0.5
A 27.739292164892152 29.115654578351098 18.640269648778585 2.5
E 29.6324129453366 27.567593944290923 19.159501758650805 0.5
E 25.846171384447704 30.663715212411272 18.121037538906364 0.5
E 26.109038574592454 27.368157232647903 19.37411313214201 0.5
E 29.36954575519185 30.863151924054293 17.90642616541516 0.5
P 27.830763154632532 30.009948322057962 20.97305162701882 0.5
P 27.647821175151773 28.221360834644234 16.30748767053835 0.5
A 1.3933585991932829 26.637713776084507 18.087932300435494 2.5
E 3.6300625072195754 25.553402635009476 17.820677782867595 0.5
E -0.8433453088330094 27.722024917159537 18.355186818003393 0.5
E 2.4559285144223706 28.888149101788787 17.85026442277365 0.5
E 0.33078868396419536 24.387278450380226 18.325600178097336 0.5
P 1.049700625227983 26.538667351803767 15.613646746428593 0.5
P 1.7370165731585827 26.736760200365246 20.562217854442395 0.5
A 5.410197099860687 34.98257271233227 4.220125488925254 2.5
E 3.9225067589015072 32.99981355258422 4.5448462364172375 0.5
E 6.897887440819867 36.96533187208032 3.8954047414332718 0.5
E 3.552726872499002 36.18583220869218 3.0573826373521302 0.5
E 7.267667327222371 33.77931321597236 5.382868340498378 0.5
P 4.644310813339329 35.91575688432335 6.409322943990382 0.5
P 6.176083386382045 34.04938854034119 2.0309280338601265 0.5
A 21.72694251005595 38.339780901675404 23.401790563398144 2.5
E 20.34916473868057 36.28013988927353 23.732860514822246 0.5
E 23.104720281431327 40.39942191407728 23.070720611974043 0.5
E 20.67655068966864 39.367526997113046 25.424268001338056 0.5
E 22.777334330443257 37.31203480623776 21.379313125458232 0.5
P 23.52927584114851 37.36427238641542 24.83356488230735 0.5
P 19.924609178963387 39.315289416935386 21.97001624448894 0.5
A 11.588631914397304 10.414780823103643 30.564577789332983 2.5
E 9.654579242695537 11.97220610412156 30.85417536723763 0.5
E 13.522684586099071 8.857355542085726 30.274980211428336 0.5
E 12.997939177901333 12.315110746940181 29.75674165644159 0.5
E 10.179324650893275 8.514450899267104 31.372413922224375 0.5
P 12.312022058176414 10.876487087536338 32.91266936021891 0.5
P 10.865241770618194 9.953074558670947 28.216486218447052 0.5
A 15.404795006524926 3.409392674539805 31.401428006067245 2.5
E 15.258000102838256 5.854379407177547 30.90093711356603 0.5
E 15.551589910211597 0.9644059419020636 31.90191889856846 0.5
E 17.439832911744713 3.236442457349207 29.95965515756024 0.5
E 13.36975710130514 3.5823428917304025 32.843200854574256 0.5
P 16.849465204379754 3.901457812096578 33.381528993348184 0.5
P 13.960124808670098 2.9173275369830316 29.421327018786307 0.5
A 21.039417503145785 25.830520907474263 17.37948750371704 2.5
E 22.97624595748623 26.945437117988153 16.258926313067274 0.5
E 19.10258904880534 24.715604696960373 18.500048694366807 0.5
E 22.287190987094903 25.84018758652339 19.545813399806896 0.5
E 19.791644019196667 25.820854228425137 15.213161607627185 0.5
P 20.068975917469164 28.068124178576937 17.92846357782222 0.5
P 22.009859088822406 23.59291763637159 16.83051142961186 0.5
A 2.667137618580742 15.579897819648117 38.88749953238664 2.5
E 0.25814359085421446 14.955969757953781 38.647788147156184 0.5
E 5.076131646307269 16.203825881342453 39.1272109176171 0.5
E 2.7192072184456495 16.298587365506556 36.49359600604216 0.5
E 2.6150680187158346 14.861208273789677 41.28140305873112 0.5
P 2.0007769571152982 17.891650209179698 39.56703198808482 0.5
P 3.333498280046186 13.268145430116537 38.20796707668846 0.5
A 37.07432126432001 14.646724765977813 26.2726710773392 2.5
E 38.88871838113303 12.933471376279309 26.42342228027633 0.5
E 35.25992414750699 16.35997815567632 26.12191987440207 0.5
E 38.218946653010875 15.686057577897921 24.308079510211233 0.5
E 35.92969587562915 13.607391954057706 28.23726264446717 0.5
P 35.79065626827755 13.151883594229917 24.733952763552537 0.5
P 38.35798626036247 16.14156593772571 27.811389391125864 0.5
70
Properties=species:S:1:pos:R:3:radius:R:1
A 16.24871087423762 7.510783404795574 37.39508389943673 2.5
E 17.31119248131392 7.541277929396648 39.6578704378875 0.5
E 15.18622926716132 7.4802888801945 35.13229736098595 0.5
E 18.13943573125478 6.12521162806068 36.52597494966502 0.5
E 14.35798601722046 8.896355181530467 38.264192849208435 0.5
P 15.005210834156347 5.430095793575381 38.007004412929135 0.5
P 17.492210914318893 9.591471016015767 36.78316338594432 0.5
A 28.13134032165541 29.263708963816025 18.78941591784372 2.5
E 30.564299197517624 29.253852252492514 19.364406312202796 0.5
E 25.6983814457932 29.273565675139537 18.214425523484643 0.5
E 27.60917658012317 30.273156627882823 21.016153540586725 0.5
E 28.653504063187654 28.254261299749228 16.562678295100714 0.5
P 28.37228872981029 31.55082904346904 17.809096783145403 0.5
P 27.890391913500533 26.97658888416301 19.769735052542035 0.5
A 0.6137169254703807 26.903185162591427 18.311472947088006 2.5
E 2.344785411747641 27.317645103955204 16.556017207736467 0.5
E -1.1173515608068798 26.48872522122765 20.066928686439546 0.5
E 0.3424391249120232 24.557578559902353 17.490170310817174 0.5
E 0.8849947260287382 29.2487917652805 19.13277558335884 0.5
P 2.3969191716392624 26.144006249273932 19.89066170301052 0.5
P -1.1694853206985008 27.662364075908922 16.732284191165494 0.5
A 4.975520272628904 34.66593628848978 4.103371271824828 2.5
E 5.028352811983457 32.97486616244188 5.943884936966555 0.5
E 4.92268773327435 36.357006414537686 2.2628576066831 0.5
E 3.536929146497388 33.139935119884875 2.7425715050582884 0.5
E 6.4141113987604195 36.19193745709469 5.464171038591367 0.5
P 2.931586737848294 35.69627713607593 5.108723669342459 0.5
P 7.019453807409514 33.635595440903636 3.098018874307196 0.5
A 21.249016219062685 38.67130159580807 23.722260866718187 2.5
E 21.212106848276242 37.1944794899897 25.739098531507864 0.5
E 21.28592558984913 40.14812370162643 21.70542320192851 0.5
E 23.073045085389765 40.03460754630221 24.753917582953157 0.5
E 19.424987352735606 37.30799564531392 22.690604150483217 0.5
P 22.958272312558805 37.1845624279937 22.664881912069983 0.5
P 19.539760125566566 40.15804076362244 24.77963982136639 0.5
A 11.41669913390047 10.455271633409344 30.156895145588788 2.5
E 10.900599773959971 8.450819128584266 28.754821108111393 0.5
E 11.93279849384097 12.459724138234423 31.558969183066182 0.5
E 8.970789515870983 10.858122146793692 30.48129860471877 0.5
E 13.862608751929958 10.052421120024997 29.832491686458805 0.5
P 11.450869166071026 9.016563316979246 32.20114336660673 0.5
P 11.382529101729915 11.893979949839443 28.112646924570846 0.5
A 15.562230983052773 3.8757996399205306 31.736820147203648 2.5
E 13.824547883792203 5.299080688201852 32.834421397269914 0.5
E 17.299914082313343 2.452518591639209 30.63921889713738 0.5
E 14.679280285856136 4.52959879157068 29.49116996616005 0.5
E 16.445181680249412 3.2220004882703814 33.982470328247246 0.5
P 17.127751827009757 5.824342102096913 31.68858364410229 0.5
P 13.99671013909579 1.9272571777441483 31.785056650305005 0.5
A 21.49048642726684 26.307209586602294 17.627992312133472 2.5
E 19.263180680146593 26.845902700562732 18.627451584848746 0.5
E 23.71779217438709 25.768516472641856 16.628533039418198 0.5
E 22.437873986725812 28.401867709697104 18.610267303943367 0.5
E 20.54309886780787 24.212551463507484 16.645717320323577 0.5
P 22.116238711343627 25.053328780335463 19.698310404274906 0.5
P 20.864734143190056 27.561090392869126 15.557674219992037 0.5
A 2.9755557625534954 15.530713968818938 38.806021584607684 2.5
E 1.6585233524004448 17.493555773994565 39.62007175410706 0.5
E 4.292588172706546 13.567872163643312 37.99197141510831 0.5
E 5.011274274023827 16.970808605415392 38.6271988240212 0.5
E 0.9398372510831638 14.090619332222483 38.98484434519417 0.5
P 3.5848797918384854 14.962049317638968 41.16299946779516 0.5
P 2.3662317332685054 16.09937861999891 36.44904370142021 0.5
A 37.779667407585706 14.982226467284837 26.656206949367323 2.5
E 37.70965316700137 15.876693095516805 28.989665210638524 0.5
E 37.84968164817004 14.08775983905287 24.322748688096123 0.5
E 37.89702652210757 17.31520164741641 25.76544679807586 0.5
E 37.66230829306384 12.649251287153268 27.546967100658787 0.5
P 40.27592958218879 14.897631787372411 26.763533068166396 0.5
P 35.28340523298262 15.066821147197263 26.54888083056825 0.5
70
Properties=species:S:1:pos:R:3:radius:R:1
A 16.214459042615296 7.275158783091535 37.783672943774484 2.5
E 16.836429942680383 8.760835862969586 39.695717873632915 0.5
E 15.592488142550208 5.789481703213483 35.87162801391605 0.5
E 18.582689273210125 7.313323437245468 36.98365479768644 0.5
E 13.846228812020469 7.236994128937602 38.583691089862526 0.5
P 16.719075505257038 5.264858538476714 39.18154817144418 0.5
P 15.709842579973552 9.285459027706356 36.38579771610479 0.5
A 27.926223539978306 29.44894139299129 19.047928203023954 2.5
E 29.728966719006515 27.732681663440683 18.81432689482961 0.5
E 26.123480360950097 31.165201122541898 19.2815295112183 0.5
E 28.956114606995495 30.239961345740145 21.184189381913686 0.5
E 26.896332472961117 28.657921440242436 16.91166702413422 0.5
P 29.31886183492263 31.08562706075894 17.770501647648462 0.5
P 26.533585245033983 27.81225572522364 20.325354758399445 0.5
A 0.0842635941123167 26.704015222768003 18.786019581015772 2.5
E -1.2813695798078135 25.239794350018943 20.28305106702225 0.5
E 1.4498967680324468 28.168236095517063 17.288988095009294 0.5
E 2.1774404543857355 25.69791228199559 19.711420847594198 0.5
E -2.008913266161102 27.710118163540418 17.860618314437346 0.5
P 0.023793221989330933 24.94509108899332 17.010483260429726 0.5
P 0.14473396623530246 28.462939356542687 20.561555901601817 0.5
A 4.354094497069277 34.56606239394359 4.17386912198389 2.5
E 2.7244226933250633 34.91317165356598 6.037651559385065 0.5
E 5.983766300813491 34.2189531343212 2.310086684582716 0.5
E 4.402766759410286 32.1167929194641 4.672577505973141 0.5
E 4.305422234728268 37.015331868423075 3.6751607379946396 0.5
P 2.45888980549655 34.20468419417642 2.58402479822972 0.5
P 6.249299188642004 34.927440593710756 5.763713445738061 0.5
A 20.360875718728618 39.0892790331467 24.279906252453195 2.5
E 19.18357256735655 38.4492177115382 26.39042249127963 0.5
E 21.538178870100687 39.7293403547552 22.16939001362676 0.5
E 20.898565020625814 36.68576793636884 23.85092534111694 0.5
E 19.823186416831422 41.492790129924565 24.70888716378945 0.5
P 18.221986403127033 38.83737446342564 23.010380126940632 0.5
P 22.499765034330203 39.341183602867766 25.549432377965758 0.5
A 11.414825790636884 9.909916881618402 29.638971680693 2.5
E 12.624469921717594 8.100731141928156 28.408683895074496 0.5
E 10.205181659556175 11.719102621308648 30.869259466311505 0.5
E 9.641829956907912 9.922992542812471 27.876497623958354 0.5
E 13.187821624365856 9.896841220424333 31.401445737427647 0.5
P 10.13293388812703 8.184612274778084 30.91571643352885 0.5
P 12.69671769314674 11.63522148845872 28.36222692785715 0.5
A 15.990710352228088 4.637593304711547 31.496921548942755 2.5
E 16.659198383298705 5.699675584345323 33.659120657166326 0.5
E 15.322222321157472 3.575511025077772 29.334722440719183 0.5
E 14.314042048572967 3.231532756717831 32.70596130630949 0.5
E 17.66737865588321 6.043653852705264 30.287881791576016 0.5
P 14.26099732636711 6.411001031846818 31.160591530206208 0.5
P 17.720423378089066 2.8641855775762766 31.8332515676793 0.5
A 21.8099085242698 26.418669386332773 18.265845699441783 2.5
E 23.37151489856177 24.61554200589805 19.014255468015914 0.5
E 20.24830214997783 28.221796766767497 17.517435930867652 0.5
E 21.041786714118388 26.732280116191973 20.624158061044202 0.5
E 22.578030334421214 26.105058656473574 15.907533337839364 0.5
P 23.604727294101533 28.121719579381608 18.62395968048123 0.5
P 20.01508975443807 24.71561919328394 17.907731718402335 0.5
A 3.2033719785849954 15.822871867952854 38.36472399559498 2.5
E 2.857586410779092 16.315408448029316 40.79121118047448 0.5
E 3.549157546390899 15.330335287876391 35.93823681071548 0.5
E 4.315659142924118 18.042671111073947 38.07264766261647 0.5
E 2.091084814245873 13.60307262483176 38.65680032857349 0.5
P 5.415441056426892 14.783689960139633 38.89089065866866 0.5
P 0.9913029007430989 16.862053775766075 37.8385573325213 0.5
A 38.577595406144205 15.367490461127579 27.114173278501337 2.5
E 39.04321690549058 12.912473115745648 27.19218900268734 0.5
E 38.11197390679783 17.82250780650951 27.036157554315334 0.5
E 37.04049597391697 15.138191811258256 29.072424402493045 0.5
E 40.11469483837144 15.596789110996902 25.15592215450963 0.5
P 40.49345603645976 15.78017916104792 28.666322138039277 0.5
P 36.66173477582865 14.954801761207237 25.562024418963396 0.5
70
Properties=species:S:1:pos:R:3:radius:R:1
A 15.70263806358084 6.75053386812927 37.75586900925557 2.5
E 17.449387790222403 7.08243801451628 39.513340212458836 0.5
E 13.955888336939276 6.418629721742259 35.9983978060523 0.5
E 17.0722002254425 8.082253310264457 36.14316233653546 0.5
E 14.33307590171918 5.418814425994083 39.36857568197568 0.5
P 16.852927104332966 4.660949468051047 37.00722212475307 0.5
P 14.552349022828714 8.840118268207492 38.50451589375807 0.5
A 28.136908946204557 29.394418173407974 19.333239236608474 2.5
E 30.206247387929515 28.27871045997423 18.482924758439527 0.5
E 26.067570504479598 30.510125886841717 20.18355371477742 0.5
E 27.237122783884757 27.17615006137678 20.05412164396998 0.5
E 29.036695108524356 31.612686285439167 18.612356829246966 0.5
P 29.213116768001576 29.685077563983896 21.570937572616458 0.5
P 27.060701124407537 29.103758782832053 17.09554090060049 0.5
A 40.217480001512534 26.205211410257917 18.95554407045292 2.5
E 41.827652205595534 26.521303489099324 20.841659462175393 0.5
E 38.607307797429534 25.88911933141651 17.069428678730446 0.5
E 42.12831458314713 25.838959675571193 17.385648892911266 0.5
E 38.30664541987794 26.57146314494464 20.525439247994573 0.5
P 40.13965535999036 23.75246897279472 19.43303528570118 0.5
P 40.29530464303471 28.657953847721114 18.47805285520466 0.5
A 3.931249415410561 34.04301685829464 4.746273069911352 2.5
E 1.5726512797945529 34.00277994989412 5.574159430392492 0.5
E 6.289847551026568 34.083253766695165 3.9183867094302114 0.5
E 4.711220856203589 34.78020172353289 7.0041931362579355 0.5
E 3.151277974617533 33.305831993056394 2.4883530035647676 0.5
P 4.211712222598232 31.654515347793616 5.429208753646195 0.5
P 3.6507866082228895 36.431518368795665 4.063337386176508 0.5
A 19.404661717116923 39.89411979719217 24.77275036012817 2.5
E 18.378551597654035 40.54375503085255 26.957944192702925 0.5
E 20.43077183657981 39.244484563531785 22.587556527553417 0.5
E 17.738500818902143 41.3159743062566 23.567662140820918 0.5
E 21.070822615331704 38.47226528812774 25.977838579435424 0.5
P 20.960619905499836 41.845094891405324 24.923383350419133 0.5
P 17.84870352873401 37.94314470297901 24.62211736983721 0.5
A 11.162075621872244 9.725448433706946 29.357466469613573 2.5
E 13.097857301531551 9.393927805462273 27.81058465068157 0.5
E 9.226293942212937 10.05696906195162 30.904348288545577 0.5
E 9.878028291475864 10.824107110086356 27.515138712096768 0.5
E 12.446122952268624 8.626789757327536 31.19979422713038 0.5
P 10.237969706949038 7.504402917319848 28.677036405507465 0.5
P 12.08618153679545 11.946493950094045 30.03789653371968 0.5
A 16.38263143462859 5.1933632437052655 31.07849153713592 2.5
E 15.036360123145615 6.599893267404813 29.510299314125852 0.5
E 17.72890274611156 3.7868332200057178 32.64668376014599 0.5
E 18.415216844981423 6.549533776245585 30.549910383206182 0.5
E 14.350046024275754 3.8371927111649455 31.60707269106566 0.5
P 15.829323106932083 6.753002554283404 32.952357891869 0.5
P 16.935939762325095 3.633723933127128 29.204625182402843 0.5
A 22.011012856540287 26.516387379536273 18.62411807380102 2.5
E 22.151972488247246 28.763293149435633 19.711106962162777 0.5
E 21.870053224833327 24.269481609636912 17.537129185439266 0.5
E 22.48145931279852 25.42326307146995 20.822699293339777 0.5
E 21.540566400282053 27.609511687602595 16.425536854262266 0.5
P 19.55972533484418 26.435803830921138 19.10857217654914 0.5
P 24.462300378236392 26.596970928151407 18.139663971052904 0.5
A 3.7161995215592416 16.2849222995935 37.65181832975718 2.5
E 5.338753358922432 17.533796030715106 39.08626367502937 0.5
E 2.0936456841960513 15.036048568471895 36.21737298448498 0.5
E 2.8737117082927766 18.4473098165085 36.722143918369866 0.5
E 4.558687334825707 14.1225347826785 38.58149274114449 0.5
P 5.4213485852355365 16.16494467499102 35.827517904871165 0.5
P 2.0110504578829467 16.40489992419598 39.47611875464319 0.5
A 38.75594223104355 15.946328180987596 27.47174693565051 2.5
E 40.26431106580719 15.947293575837579 25.47805124013261 0.5
E 37.247573396279904 15.945362786137613 29.46544263116841 0.5
E 40.74539648910183 16.108590066329 28.976985400366083 0.5
E 36.76648797298527 15.784066295646193 25.96650847093494 0.5
P 38.625960642318105 18.441056652901583 27.37461487084093 0.5
P 38.88592381976899 13.451599709073609 27.568879000460093 0.5
70
Properties=species:S:1:pos:R:3:radius:R:1
A 15.191461877634783 6.42275688237053 38.01731754303778 2.5
E 17.061233576117314 7.692311426577078 39.086048124072335 0.5
E 13.321690179152252 5.153202338163982 36.94858696200322 0.5
E 16.180108905579658 6.863707627956357 35.76384477992231 0.5
E 14.20281484968991 5.981806136784703 40.270790306153245 0.5
P 16.524327530913357 4.3147261190153054 38.1895831840068 0.5
P 13.858596224356207 8.530787645725756 37.845051902068754 0.5
A 28.639155910276433 29.60774926823855 19.35642550836783 2.5
E 27.72331276100246 27.359752136266394 18.758311622412347 0.5
E 29.554999059550404 31.855746400210705 19.954539394323316 0.5
E 26.56727495778739 30.688287857114023 18.467749146206685 0.5
E 30.711036862765475 28.527210679363076 20.245101870528977 0.5
P 27.581545091193675 29.4376162244292 21.615300029620204 0.5
P 29.69676672935919 29.7778823120479 17.097550987115458 0.5
A 40.13736156619612 25.832927751441925 19.13796469968154 2.5
E 42.582592192413216 25.323639847383838 19.24507686234365 0.5
E 37.69213093997902 26.342215655500013 19.030852537019427 0.5
E 40.61380459719295 27.816530819976048 17.692862314133492 0.5
E 39.660918535199286 23.849324682907802 20.583067085229587 0.5
P 39.927959505975636 24.399071169603204 17.10075924124263 0.5
P 40.3467636264166 27.266784333280647 21.175170158120448 0.5
A 3.5737538060118026 33.5313113462667 5.1008483249600465 2.5
E 1.781078249818511 31.89403359370633 5.697200495407734 0.5
E 5.3664293622050945 35.16858909882707 4.504496154512359 0.5
E 2.150356843204287 35.400791453379256 5.95465463518531 0.5
E 4.997150768819318 31.661831239154136 4.247042014734783 0.5
P 4.578868444496957 33.25861061271249 7.373595313390915 0.5
P 2.568639167526648 33.80401207982091 2.828101336529178 0.5
A 18.66338360000508 0.9010036989911214 25.021150895734884 2.5
E 16.40433106074543 1.6255011858746145 25.80968435498952 0.5
E 20.92243613926473 0.1765062121076284 24.232617436480247 0.5
E 19.44951080101434 0.7730388646102042 27.39088274237814 0.5
E 17.87725639899582 1.0289685333720386 22.65141904909163 0.5
P 17.936275871605822 -1.48829083970883 25.13333805471801 0.5
P 19.390491328404337 3.290298237691073 24.90896373675176 0.5
A 10.804088618358147 9.569604208830375 29.7461267622982 2.5
E 10.965594154199472 11.312111513975921 31.53150746495126 0.5
E 10.642583082516822 7.827096903684829 27.96074605964514 0.5
E 10.517203556835227 11.359825463009361 28.024846766899508 0.5
E 11.090973679881067 7.779382954651389 31.467406757696892 0.5
P 13.282316397107815 9.663285330723438 29.430514778949565 0.5
P 8.32586083960848 9.475923086937312 30.061738745646835 0.5
A 16.690301077364197 5.824760662173872 30.556194290893313 2.5
E 15.109231758475167 7.334799249995706 31.76863120560524 0.5
E 18.271370396253225 4.314722074352037 29.343757376181387 0.5
E 15.47803438930953 6.273593904132904 28.416344249898646 0.5
E 17.902567765418862 5.37592742021484 32.696044331887975 0.5
P 18.20047632742629 7.76597991413923 30.10782108707945 0.5
P 15.180125827302103 3.8835414102085135 31.004567494707175 0.5
A 22.09453750157138 26.794251796908302 19.341611923557927 2.5
E 19.612224586371493 26.514697044307496 19.241753366938788 0.5
E 24.57685041677127 27.073806549509108 19.441470480177067 0.5
E 22.041343448560816 26.385780741206027 21.807442775294863 0.5
E 22.147731554581945 27.202722852610577 16.87578107182099 0.5
P 22.38658712707373 24.34374153638057 18.94197899286757 0.5
P 21.80248787606903 29.244762057436034 19.741244854248286 0.5
A 3.819283436267745 16.63358776283133 36.812095512869945 2.5
E 4.795259680626894 18.251816455525454 38.44880143287774 0.5
E 2.843307191908596 15.015359070137203 35.17538959286215 0.5
E 1.8090651004706633 18.098709954529347 36.562217130812435 0.5
E 5.829501772064827 15.168465571133313 37.061973894927455 0.5
P 4.940217249154256 17.852092117167384 34.938928535371076 0.5
P 2.698349623381234 15.415083408495272 38.685262490368814 0.5
A 38.66725883394471 16.126815565155052 27.907836930747717 2.5
E 36.19725485547873 15.768732112394181 27.763418832085712 0.5
E 41.13726281241068 16.48489901791592 28.05225502940972 0.5
E 38.433741210556214 18.256918117851235 26.620151940323332 0.5
E 38.9007764573332 13.996713012458871 29.1955219211721 0.5
P 38.35976921472272 17.385560716429172 30.045829161373135 0.5
P 38.9747484531667 14.868070413880933 25.7698447001223 0.5
70
Properties=species:S:1:pos:R:3:radius:R:1
A 14.689314136389827 6.434974972192447 38.417507613752015 2.5
E 15.996830781906366 8.312560996064136 37.410000321143706 0.5
E 13.381797490873288 4.5573889483207575 39.425014906360325 0.5
E 12.824397318844737 6.871512479217716 36.810796604081105 0.5
E 16.554230953934916 5.998437465167178 40.024218623422925 0.5
P 15.720083502123366 4.843087498806869 36.78857889009852 0.5
P 13.658544770656288 8.026862445578024 40.04643633740551 0.5
A 28.64188915436436 30.053051894049588 19.043982623295168 2.5
E 26.8374336547261 30.145825044104793 17.316170859110773 0.5
E 30.44634465400262 29.960278743994383 20.771794387479563 0.5
E 27.80646917469763 32.19249263985519 20.031336031533737 0.5
E 29.477309134031092 27.913611148243984 18.0566292150566 0.5
P 27.12662884425299 28.76301839145537 20.55719105400972 0.5
P 30.15714946447573 31.343085396643808 17.530774192580616 0.5
A 40.158957013991895 25.343552259759235 19.180359762686052 2.5
E 41.5304593291088 23.345313067706236 18.5671538176949 0.5
E 38.78745469887499 27.341791451812234 19.793565707677203 0.5
E 41.883682488097335 26.839772497355305 18.16220111120787 0.5
E 38.434231539886454 23.847332022163165 20.198518414164234 0.5
P 38.97815074766331 25.208034246375437 16.980966339615094 0.5
P 41.33976328032048 25.479070273143034 21.37975318575701 0.5
A 3.7177380051166793 33.22666038433057 5.465489464471898 2.5
E 4.048285184155894 32.133099350960656 7.689194217518894 0.5
E 3.387190826077464 34.32022141770049 3.2417847114249017 0.5
E 1.2676800969428506 32.74618609381406 5.593398427203992 0.5
E 6.167795913290508 33.70713467484708 5.337580501739804 0.5
P 3.346315322686322 35.42285452931121 6.60073237615585 0.5
P 4.089160687547037 31.03046623934993 4.330246552787946 0.5
A 17.86508247027203 2.2911295429265293 24.936285864106107 2.5
E 17.51790343901689 2.5309370166491916 27.400420417210643 0.5
E 18.212261501527166 2.051322069203867 22.47215131100157 0.5
E 16.353898369182655 0.29965834244055434 24.917179052497513 0.5
E 19.376266571361402 4.282600743412504 24.9553926757147 0.5
P 15.904014054109135 3.783287320502981 24.514769750598383 0.5
P 19.826150886434924 0.7989717653500776 25.357801977613832 0.5
A 10.386178942471604 9.367274268856809 29.90801109873475 2.5
E 8.567542769487488 9.770086373239476 28.240586474088907 0.5
E 12.20481511545572 8.964462164474142 31.575435723380593 0.5
E 10.950496869609573 11.802599061933602 29.880837042449237 0.5
E 9.821861015333635 6.931949475780016 29.935185155020264 0.5
P 8.766269146395532 9.763425200683443 31.770524640105254 0.5
P 12.006088738547676 8.971123337030175 28.045497557364246 0.5
A 16.433871522404214 6.301415458753306 30.189442781276064 2.5
E 14.722433933383394 7.9742443083184895 30.91237086825856 0.5
E 18.145309111425036 4.6285866091881225 29.46651469429357 0.5
E 15.092390040492466 4.473693590074397 31.242941810435504 0.5
E 17.77535300431596 8.129137327432215 29.135943752116624 0.5
P 15.200417505193355 5.968134179929481 28.04060244830316 0.5
P 17.667325539615074 6.634696737577131 32.338283114248966 0.5
A 22.066033605109087 26.57827840591756 19.863495887925307 2.5
E 23.41457313150304 24.500486443019916 20.201462905060307 0.5
E 20.717494078715134 28.6560703688152 19.525528870790307 0.5
E 21.277035776733992 26.45150711903788 22.23233768670425 0.5
E 22.855031433484182 26.705049692797235 17.494654089146366 0.5
P 24.017679979986603 27.96273122192135 20.587627663009524 0.5
P 20.11438723023157 25.193825589913768 19.13936411284109 0.5
A 3.2950754045466004 16.503408333343728 36.257282668043274 2.5
E 4.190818198743586 16.65477014516226 38.586388601350656 0.5
E 2.3993326103496146 16.352046521525196 33.92817673473589 0.5
E 1.6643682860438238 14.75914622443904 36.99778519275485 0.5
E 4.925782523049377 18.247670442248417 35.5167801433317 0.5
P 1.6252133921907828 18.287964103658247 36.783516040539354 0.5
P 4.964937416902418 14.718852563029207 35.731049295547194 0.5
A 38.80396760180681 15.739316117378044 28.14166087165035 2.5
E 40.803377937752224 14.239426229422179 28.193512896899623 0.5
E 36.8045572658614 17.23920600533391 28.089808846401073 0.5
E 39.03907476741816 16.137657146603942 30.59849807527486 0.5
E 38.568860436195465 15.340975088152145 25.684823668025835 0.5
P 40.28622362867697 17.69933008376784 27.682028059109623 0.5
P 37.32171157493665 13.779302150988247 28.601293684191074 0.5
70
Properties=species:S:1:pos:R:3:radius:R:1
A 13.967264240639686 6.080065076317142 38.60162006855415 2.5
E 14.117664995342258 7.046830807214182 36.30102370357653 0.5
E 13.816863485937114 5.113299345420103 40.90221643353176 0.5
E 11.513324190822342 6.55609957061004 38.64123562289793 0.5
E 16.42120429045703 5.604030582024245 38.562004514210365 0.5
P 13.513879365629991 3.824238136632576 37.62402763133605 0.5
P 14.42064911564938 8.335892016001708 39.57921250577225 0.5
A 28.227376307174467 30.231337769646313 18.956194717551245 2.5
E 26.837922074739886 32.09314206134427 18.032559662248183 0.5
E 29.616830539609047 28.36953347794836 19.879829772854308 0.5
E 26.18191310253862 29.203092928582766 19.96058150823849 0.5
E 30.272839511810314 31.25958261070986 17.951807926864 0.5
P 27.859276844460293 28.917413370663915 16.861414189832825 0.5
P 28.59547576988864 31.54526216862871 21.050975245269665 0.5
A 39.981557112914935 24.599193406247444 19.111715367022637 2.5
E 40.63462573729962 22.62754649992267 17.720273723034474 0.5
E 39.32848848853025 26.57084031257222 20.5031570110108 0.5
E 40.52488218430523 26.12381008853167 17.206369771362986 0.5
E 39.43823204152464 23.07457672396322 21.017060962682287 0.5
P 37.63032355611049 24.403866887615617 18.284945560803187 0.5
P 42.33279066971938 24.79451992487927 19.938485173242086 0.5
A 3.8962930030334566 33.17682259208009 5.292815518578381 2.5
E 4.651442403257919 34.881246975665306 6.958554665017711 0.5
E 3.1411436028089943 31.47239820849488 3.6270763721390518 0.5
E 2.9109324567467256 31.809103856457053 7.139003497644125 0.5
E 4.881653549320188 34.544541327703136 3.4466275395126376 0.5
P 1.726312824054446 34.39102314424003 5.034159295045392 0.5
P 6.066273182012467 31.962622039920152 5.55147174211137 0.5
A 16.848988901414 3.189369172767934 24.590430379746003 2.5
E 17.716226859403804 1.3301429663053446 23.16173298791505 0.5
E 15.981750943424196 5.048595379230523 26.019127771576954 0.5
E 14.576014905510597 2.1487253879354458 24.564940635993096 0.5
E 19.121962897317403 4.230012957600422 24.61592012349891 0.5
P 17.424738446067533 1.8815700955804622 26.64181382404378 0.5
P 16.273239356760467 4.497168249955406 22.539046935448226 0.5
A 9.69210485348171 9.253456014335931 30.067944822063097 2.5
E 11.329976644696169 11.117325168838448 30.37350622413628 0.5
E 8.054233062267253 7.389586859833415 29.762383419989916 0.5
E 9.035046889073348 10.19491978206387 27.84715198943283 0.5
E 10.349162817890074 8.311992246607993 32.288737654693364 0.5
P 11.462881752741016 7.878815061596454 28.961278013985787 0.5
P 7.921327954222407 10.62809696707541 31.174611630140408 0.5
A 15.982488135253814 6.515374446764234 29.712386351678113 2.5
E 13.853065633741116 5.324517397885188 29.16702472927927 0.5
E 18.11191063676651 7.70623149564328 30.257747974076956 0.5
E 14.981056238128364 7.324711859344244 31.855306580715354 0.5
E 16.983920032379263 5.706037034184224 27.569466122640872 0.5
P 16.82670017347059 4.471644415245299 30.878779764209444 0.5
P 15.138276097037034 8.55910447828317 28.54599293914678 0.5
A 22.064746340310766 26.31190919069044 20.255957554364336 2.5
E 21.650302392129895 28.048331367929418 22.006121614162392 0.5
E 22.479190288491637 24.57548701345146 18.50579349456628 0.5
E 21.686853000101173 24.513418631273876 21.95084053885461 0.5
E 22.442639680520358 28.110399750107003 18.561074569874062 0.5
P 19.628471963882404 26.295485729360493 19.695335192451743 0.5
P 24.501020716739127 26.328332652020386 20.81657991627693 0.5
A 2.6060205702711072 16.088147120214735 35.77966720594507 2.5
E 2.1191566014776364 16.500800185711025 38.19683102402355 0.5
E 3.092884539064578 15.675494054718447 33.36250338786658 0.5
E 4.131724745139583 14.209878696726223 36.407627793972274 0.5
E 1.0803163954026311 17.96641554370325 35.15170661791786 0.5
P 0.6863356360487847 14.490703795128338 35.665717320217425 0.5
P 4.52570550449343 17.685590445301134 35.89361709167271 0.5
A 39.32937951844834 15.834469363413259 27.827275921461585 2.5
E 41.079105695762344 16.60939026193903 26.218563422147202 0.5
E 37.57965334113434 15.059548464887486 29.435988420775967 0.5
E 40.678115311887694 13.784876331652052 28.30694264289598 0.5
E 37.98064372500899 17.884062395174467 27.34760920002719 0.5
P 40.49958038322235 17.038074782636734 29.679831974837096 0.5
P 38.15917865367433 14.630863944189784 25.974719868086073 0.5
70
Properties=species:S:1:pos:R:3:radius:R:1
A 13.148613789256643 5.616647248320971 38.816011719785784 2.5
E 14.088077722279618 4.564833185145852 36.751769802021286 0.5
E 12.209149856233669 6.668461311496091 40.88025363755028 0.5
E 12.069565416009551 7.389140759767376 37.42176591646658 0.5
E 14.227662162503735 3.844153736874566 40.210257523104985 0.5
P 11.09847668975773 4.201743036585263 38.60391753110834 0.5
P 15.198750888755557 7.031551460056679 39.02810590846323 0.5
A 27.772168722155037 29.84741384045978 19.196674802053707 2.5
E 26.489618584022114 31.333105520724697 20.745153208221133 0.5
E 29.05471886028796 28.361722160194862 17.64819639588628 0.5
E 27.50032450416637 31.524359274969296 17.362566100034165 0.5
E 28.044012940143702 28.170468405950263 21.03078350407325 0.5
P 29.900822255335424 30.95672634866893 19.895430764324775 0.5
P 25.64351518897465 28.73810133225063 18.49791883978264 0.5
A 39.61676321122347 24.363909951081272 18.94494513046279 2.5
E 38.63539031685925 26.273674251809723 17.66443446753549 0.5
E 40.59813610558769 22.45414565035282 20.225455793390093 0.5
E 37.3200638954282 23.616287401951915 19.590106177689766 0.5
E 41.913462527018744 25.11153250021063 18.299784083235817 0.5
P 39.50685645513962 22.934273340016542 16.897004783365094 0.5
P 39.72666996730732 25.793546562146002 20.99288547756049 0.5
A 4.376049393336176 32.97942223634081 4.925022270491319 2.5
E 2.1615854161041383 31.82523874432194 5.04338510373044 0.5
E 6.590513370568214 34.133605728359676 4.806659437252199 0.5
E 3.4577557268060612 34.56707959131668 3.2261753482522053 0.5
E 5.294343059866291 31.391764881364942 6.623869192730433 0.5
P 3.6669048131891224 34.52771309723929 6.755298035097816 0.5
P 5.08519397348323 31.431131375442327 3.0947465058848227 0.5
A 15.889117665032423 4.377801585211497 24.43406265919347 2.5
E 14.442397839876019 2.6662444453590854 23.326103316744582 0.5
E 17.335837490188826 6.089358725063908 25.542022001642355 0.5
E 15.528310631813412 3.2556159052645883 26.638720815121935 0.5
E 16.249924698251434 5.499987265158405 22.229404503265002 0.5
P 17.895811471341503 2.9420887111512144 24.031684092445133 0.5
P 13.882423858723342 5.813514459271779 24.836441225941805 0.5
A 9.257536527322575 9.317057093749373 30.15063826975935 2.5
E 7.406098325449647 8.280662646426322 28.828494883358925 0.5
E 11.108974729195502 10.353451541072424 31.47278165615978 0.5
E 8.42340549211745 11.592068286761961 29.535374515119138 0.5
E 10.0916675625277 7.042045900736785 30.765902024399566 0.5
P 7.799317750611731 9.33156988894172 32.181250832022904 0.5
P 10.715755304033419 9.302544298557025 28.120025707495802 0.5
A 15.564160609919117 6.954758281342371 29.56604138030046 2.5
E 15.463315718182313 7.043860957375535 32.06241695719861 0.5
E 15.665005501655921 6.865655605309207 27.069665803402316 0.5
E 13.67545252533636 5.316935473166546 29.548202651365735 0.5
E 17.452868694501873 8.592581089518196 29.58388010923519 0.5
P 13.929348058266315 8.841447752914736 29.43265937695791 0.5
P 17.198973161571917 5.068068809770007 29.699423383643012 0.5
A 22.278862457265316 26.09645204675934 21.25911252466071 2.5
E 21.295751558779653 28.304782039106563 20.62132603516889 0.5
E 23.26197335575098 23.888122054412115 21.89689901415253 0.5
E 20.029872149534537 25.315640655559058 22.02224827084534 0.5
E 24.527852764996094 26.87726343795962 20.495976778476084 0.5
P 21.803956617112135 25.222602965812598 18.965457749696352 0.5
P 22.753768297418496 26.97030112770608 23.55276729962507 0.5
A 2.092831641599215 15.665700553973657 35.884912131786976 2.5
E 0.4774461880918053 15.902036750477178 37.77823593896295 0.5
E 3.7082170951066247 15.429364357470137 33.991588324611 0.5
E 3.8631508964906502 14.9260343629984 37.48767963260835 0.5
E 0.3225123867077797 16.405366744948914 34.282144630965604 0.5
P 1.3811438080951588 13.289350594866033 35.574329937365114 0.5
P 2.8045194751032714 18.042050513081282 36.19549432620884 0.5
A 39.25448718784375 15.88945540750402 27.133064502251734 2.5
E 41.18758896773056 17.169695176094745 28.067999603484758 0.5
E 37.32138540795694 14.609215638913293 26.19812940101871 0.5
E 40.77355695875505 14.815185748967385 25.463222673858557 0.5
E 37.73541741693245 16.963725066040652 28.802906330644912 0.5
P 39.70785738944761 14.030173063246766 28.74164295064377 0.5
P 38.80111698623989 17.748737751761276 25.5244860538597 0.5
70
Properties=species:S:1:pos:R:3:radius:R:1
A 12.502123849932296 5.2382388358426955 39.07698247660584 2.5
E 12.290051576712836 2.7943710227045364 38.594763166707565 0.5
E 12.714196123151757 7.682106648980854 39.55920178650412 0.5
E 12.388062458011408 5.731221962857999 36.628726437023545 0.5
E 12.616185241853184 4.745255708827392 41.52523851618814 0.5
P 10.013747803229442 5.423920683058443 39.23030208334271 0.5
P 14.99049989663515 5.0525569886269475 38.92366286986898 0.5
A 27.51292622218303 29.419797427020384 19.740941056218308 2.5
E 26.12466285858044 29.64338681194793 17.673882126185966 0.5
E 28.90118958578562 29.196208042092838 21.80799998625065 0.5
E 25.45166393910748 29.596815226283212 21.144458957462966 0.5
E 29.57418850525858 29.242779627757557 18.33742315497365 0.5
P 27.24103905137703 26.936116190288953 19.654889439968276 0.5
P 27.78481339298903 31.903478663751816 19.82699267246834 0.5
A 39.31992956853672 24.331243544190343 18.83597929105823 2.5
E 37.68108195443589 24.583099692777417 20.707007612109294 0.5
E 40.958777182637554 24.07938739560327 16.964950970007166 0.5
E 37.463850031101416 23.663293153790473 17.300137168091528 0.5
E 41.17600910597203 24.999193934590213 20.371821414024932 0.5
P 38.9747524423099 26.727158976000034 18.21112571209253 0.5
P 39.665106694763544 21.935328112380652 19.46083287002393 0.5
A 5.050715088048554 32.644323129867864 4.844259196302951 2.5
E 5.6336575126396005 33.437098470012 7.142450961511152 0.5
E 4.467772663457507 31.85154778972372 2.5460674310947504 0.5
E 5.699889032792117 30.316039943244526 5.4827500673047975 0.5
E 4.40154114330499 34.9726063164912 4.205768325301104 0.5
P 2.7079066624453145 32.19643401083732 5.5930208526236065 0.5
P 7.393523513651793 33.092212248898406 4.095497539982295 0.5
A 15.640825669047118 4.981006557891926 24.02579348843417 2.5
E 15.453682797997825 4.07532967246154 26.34844863395462 0.5
E 15.82796854009641 5.886683443322313 21.70313834291372 0.5
E 18.02472952189005 4.23454607648369 23.926802730802496 0.5
E 13.256921816204187 5.727467039300162 24.124784246065847 0.5
P 14.911456101395618 2.7736221036354913 23.106296938744634 0.5
P 16.370195236698617 7.188391012148362 24.94529003812371 0.5
A 9.05745980093091 9.19805839943501 30.47485185719336 2.5
E 8.940498352258071 9.942022295469616 28.090981529151037 0.5
E 9.17442124960375 8.454094503400402 32.858722185235685 0.5
E 7.414688589887662 10.972558681967458 31.109242506130602 0.5
E 10.700231011974159 7.423558116902561 29.84046120825612 0.5
P 7.17660287716156 7.601917281397972 30.06900611849499 0.5
P 10.938316724700261 10.794199517472046 30.880697595891732 0.5
A 15.307464149020467 6.773408106582636 29.799525973687818 2.5
E 13.784502760837027 8.730045385069534 29.4799024912322 0.5
E 16.830425537203904 4.816770828095738 30.119149456143436 0.5
E 13.594638095775844 5.677837872595388 31.254157464384647 0.5
E 17.020290202265087 7.868978340569884 28.344894482990988 0.5
P 14.309057657941745 5.668285297644275 27.79156978498863 0.5
P 16.305870640099187 7.878530915520997 31.807482162387004 0.5
A 22.47233480555315 26.392003160939495 22.082988016638318 2.5
E 23.746237611905997 28.06566538720672 20.731682576579594 0.5
E 21.198431999200302 24.71834093467227 23.43429345669704 0.5
E 21.41388275629796 25.512496698997715 19.995849390952458 0.5
E 23.53078685480834 27.271509622881275 24.170126642324178 0.5
P 24.344993583706167 24.756361655056065 21.822553831406132 0.5
P 20.599676027400132 28.027644666822926 22.343422201870503 0.5
A 1.4871801692451363 15.48849773281295 35.76625530780374 2.5
E 0.25599212096885426 16.898354403838407 37.42350609056028 0.5
E 2.7183682175214186 14.078641061787495 34.1090045250472 0.5
E 3.128415525412171 14.840133047161551 37.5371222537 0.5
E -0.15405518692189824 16.13686241846435 33.99538836190748 0.5
P 0.058711585254075604 13.528414213784819 36.372514413290325 0.5
P 2.915648753236197 17.44858125184108 35.15999620231715 0.5
A 39.539658377190804 16.299449476872187 26.46426183809425 2.5
E 39.848245512666146 15.011575711342696 28.584675746716847 0.5
E 39.23107124171546 17.58732324240168 24.34384792947165 0.5
E 42.020533313453846 16.45465527196717 26.197483443558777 0.5
E 37.05878344092776 16.144243681777205 26.73104023262972 0.5
P 39.53386782962517 14.162327036479503 25.16708253501812 0.5
P 39.545448924756435 18.43657191726487 27.761441141170376 0.5
70
Properties=species:S:1:pos:R:3:radius:R:1
A 12.318013811688004 5.267619441858129 39.231138440761704 2.5
E 11.534339368760786 2.9269765766711195 39.62768017267865 0.5
E 13.101688254615222 7.608262307045138 38.83459670884476 0.5
E 13.2986268679951 4.5681601914747985 37.04044111094796 0.5
E 11.337400755380909 5.967078692241459 41.42183577057545 0.5
P 10.15601186874193 5.798795245808353 38.09377312390214 0.5
P 14.48001575463408 4.736443637907904 40.36850375762127 0.5
A 27.63265621474558 28.80825356232022 20.470620800502896 2.5
E 28.069404098914735 30.832473349620823 19.06998325339283 0.5
E 27.195908330576426 26.78403377501962 21.87125834761296 0.5
E 28.545530783237894 27.353984728869708 18.65354562807483 0.5
E 26.719781646253267 30.262522395770734 22.287695972930962 0.5
P 29.91868143505129 29.00225462611941 21.46382384085821 0.5
P 25.34663099443987 28.614252498521033 19.47741776014758 0.5
A 39.022231477314406 24.534121893623016 18.9162005821225 2.5
E 40.067342384318515 24.711746639313994 21.180310261837565 0.5
E 37.9771205703103 24.35649714793204 16.652090902407434 0.5
E 36.805246606713645 25.15458490184717 19.890881934643897 0.5
E 41.23921634791517 23.913658885398863 17.941519229601102 0.5
P 39.51489898749603 26.949380700696047 18.499302969670968 0.5
P 38.52956396713278 22.118863086549986 19.33309819457403 0.5
A 5.481043054200515 32.21850815913373 4.5076551776436675 2.5
E 3.253270558546308 32.37290299747801 3.383737057183415 0.5
E 7.708815549854721 32.064113320789446 5.63157329810392 0.5
E 4.6093075750290255 33.570560985467345 6.421298406972624 0.5
E 6.352778533372004 30.866455332800108 2.5940119483147113 0.5
P 4.755021730849806 30.121339737500513 5.65864503396047 0.5
P 6.207064377551224 34.31567658076694 3.3566653213268656 0.5
A 15.64917649610901 5.818395167605309 23.71529650162628 2.5
E 17.542256924077474 4.558282679906679 22.676853912173883 0.5
E 13.756096068140549 7.078507655303939 24.75373909107868 0.5
E 14.144513884200892 5.089708785807939 21.85653170173664 0.5
E 17.153839108017127 6.547081549402679 25.574061301515922 0.5
P 15.014954990979716 3.785876366873342 25.025498931444858 0.5
P 16.283398001238307 7.8509139683372755 22.405094071807703 0.5
A 8.772540604897998 8.932438628312163 31.335522778862035 2.5
E 8.451756639628993 6.776726179326138 30.11077730125772 0.5
E 9.093324570167002 11.088151077298187 32.56026825646635 0.5
E 8.94260738420315 7.681261630522748 33.4932144646176 0.5
E 8.602473825592845 10.183615626101577 29.17783109310647 0.5
P 11.246035084010963 8.738892877936184 31.028333742097484 0.5
P 6.299046125785033 9.125984378688141 31.642711815626587 0.5
A 15.154268513794527 6.705414442350371 30.06467423840889 2.5
E 13.100369239305916 6.8642862651540675 28.64825003846964 0.5
E 17.208167788283138 6.546542619546674 31.48109843834814 0.5
E 13.833805230496187 5.558086385721792 31.850735560965653 0.5
E 16.474731797092865 7.85274249897895 28.27861291585213 0.5
P 15.690807876484241 4.489923960675652 29.038161969659708 0.5
P 14.617729151104813 8.92090492402509 31.091186507158074 0.5
A 22.406559945544956 26.92955638011317 22.622492316066534 2.5
E 23.590534427427553 29.092664838037354 22.21119409639182 0.5
E 21.22258546366236 24.766447922188984 23.033790535741247 0.5
E 24.536937180993913 25.686156188714644 22.215738337953393 0.5
E 20.276182710096 28.172956571511694 23.029246294179675 0.5
P 22.96306444771146 27.08740999358737 25.054648761647584 0.5
P 21.85005544337845 26.771702766638967 20.190335870485484 0.5
A 0.1760209815378047 15.320471488921351 36.12715423833603 2.5
E -2.0312608315813274 15.575361075765665 37.272989434161396 0.5
E 2.3833027946569367 15.065581902077037 34.98131904251067 0.5
E 1.343671270853233 16.047570700792978 38.21471730036735 0.5
E -0.9916293077776237 14.593372277049726 34.03959117630472 0.5
P 0.2964360941085142 12.942161577531689 36.88816814494391 0.5
P 0.055605868967095254 17.698781400311013 35.366140331728154 0.5
A 40.14235370428444 16.78683088844904 25.933686106117882 2.5
E 38.337503066215056 15.888674124590334 24.455231304037127 0.5
E 41.94720434235382 17.684987652307743 27.412140908198637 0.5
E 39.3198744931893 15.352681213257108 27.808984124157536 0.5
E 40.964832915379574 18.22098056364097 24.058388088078228 0.5
P 41.66420853362169 14.946578422975351 25.19380183020634 0.5
P 38.62049887494719 18.62708335392273 26.673570382029425 0.5
70
Properties=species:S:1:pos:R:3:radius:R:1
A 12.5177659267181 5.247895085422401 38.97141478734618 2.5
E 10.306435439382122 5.905572280957825 38.00835810041075 0.5
E 14.729096414054078 4.590217889886977 39.9344714742816 0.5
E 11.351592727812154 4.014271160008086 40.806683726983856 0.5
E 13.683939125624047 6.481519010836717 37.1361458477085 0.5
P 12.510180023221944 3.1753042630172668 37.57344850128985 0.5
P 12.525351830214257 7.3204859078275355 40.3693810734025 0.5
A 27.69571684905073 28.089378932445182 20.86797516438424 2.5
E 26.2935087836537 30.023872714916923 20.132076837905984 0.5
E 29.09792491444776 26.154885149973442 21.603873490862497 0.5
E 26.9842411213735 28.473574879833688 23.23360314928301 0.5
E 28.407192576727958 27.705182985056677 18.502347179485472 0.5
P 25.7521081357904 26.553108357452537 20.532926078204177 0.5
P 29.639325562311058 29.625649507437828 21.203024250564305 0.5
A 39.066067380733536 24.852784005257195 19.21616040800775 2.5
E 41.50096434495937 24.801340901641705 19.780633950961057 0.5
E 36.6311704165077 24.904227108872686 18.65168686505444 0.5
E 38.98132525364404 27.28144512535718 19.803036830784354 0.5
E 39.150809507823034 22.42412288515721 18.629283985231144 0.5
P 39.6265096574224 25.443511328821227 16.852488331831633 0.5
P 38.50562510404467 24.262056681693164 21.579832484183864 0.5
A 5.999210027218212 32.18589688167052 4.182251059654588 2.5
E 8.062688122164646 30.788880022775583 3.981248453603459 0.5
E 3.9357319322717785 33.582913740565466 4.383253665705716 0.5
E 4.599576355823212 30.11460005564205 4.209729130575285 0.5
E 7.398843698613213 34.257193707698995 4.154772988733891 0.5
P 6.181099382523526 32.09604503445809 6.674006045197695 0.5
P 5.817320671912898 32.27574872888295 1.6904960741114814 0.5
A 16.055624086816756 6.467881890276127 23.9429975269731 2.5
E 16.074443609259923 4.271935346430813 22.748232026069743 0.5
E 16.03680456437359 8.663828434121442 25.13776302787646 0.5
E 14.869615963301602 5.408256888507962 25.871877924142375 0.5
E 17.24163221033191 7.527506892044292 22.01411712980383 0.5
P 18.256312741881594 5.915601497539198 24.992738357496176 0.5
P 13.854935431751917 7.020162283013056 22.893256696450027 0.5
A 8.900739828464497 8.532289968358562 32.17826871009215 2.5
E 9.813853017914026 8.62129314203641 34.50384449650031 0.5
E 7.987626639014968 8.443286794680713 29.85269292368399 0.5
E 8.859048745856715 11.030685785533144 32.0990210328083 0.5
E 8.942430911072279 6.033894151183979 32.25751638737599 0.5
P 11.227644673292417 8.542127437502835 31.26425718537458 0.5
P 6.573834983636577 8.522452499214289 33.092280234809714 0.5
A 15.388229341246012 6.3669352783055295 30.26916759259506 2.5
E 15.999937149324655 6.5262128108183415 27.85039843759665 0.5
E 14.776521533167369 6.207657745792718 32.68793674759347 0.5
E 13.03499511365582 5.807557613660754 29.63719821169594 0.5
E 17.741463568836206 6.926312942950305 30.901136973494182 0.5
P 15.969694927186472 3.9355308907277116 30.25611093016816 0.5
P 14.806763755305552 8.798339665883347 30.282224255021962 0.5
A 22.587405770894435 27.491067230334174 22.419937174811437 2.5
E 21.846000566212005 29.666039768025634 21.435146444372865 0.5
E 23.328810975576864 25.316094692642714 23.40472790525001 0.5
E 24.758912293722346 27.676730855443495 21.195156198625465 0.5
E 20.415899248066523 27.305403605224853 23.64471815099741 0.5
P 23.579815839256096 28.70968262437743 24.364184787029377 0.5
P 21.594995702532774 26.27245183629092 20.475689562593498 0.5
A 39.116968827377704 14.897333565824237 36.521445532577125 2.5
E 37.96347980598894 12.857026922148119 37.39127992906131 0.5
E 40.27045784876647 16.937640209500355 35.65161113609294 0.5
E 39.90056266730327 15.439670260242103 38.832690133202284 0.5
E 38.33337498745214 14.354996871406371 34.21020093195197 0.5
P 41.19192515741615 13.55829670686205 36.132168614722524 0.5
P 37.04201249733926 16.236370424786422 36.91072245043173 0.5
A 0.2814854019823459 17.101278554655448 25.512447878470848 2.5
E -1.5430938993404084 16.759572011423806 23.837889127188177 0.5
E 2.1060647033051003 17.44298509788709 27.18700662975352 0.5
E -1.3690927269213173 16.81825624479867 27.368651049599578 0.5
E 1.932063530886009 17.384300864512227 23.65624470734212 0.5
P 0.7247711039507085 14.640966580446456 25.531494557824523 0.5
P -0.1618002999860168 19.56159052886444 25.493401199117173 0.5
70
Properties=species:S:1:pos:R:3:radius:R:1
A 12.986088735079884 4.645889087726035 38.405564874302016 2.5
E 10.501452911949034 4.883754082767102 38.5470041565009 0.5
E 15.470724558210733 4.408024092684967 38.264125592103134 0.5
E 13.134696112691087 6.870572263181339 37.274768422165046 0.5
E 12.83748135746868 2.4212059122707306 39.536361326438985 0.5
P 13.219542528654422 5.76132846885804 40.630715276698545 0.5
P 12.752634941505345 3.5304497065940295 36.180414471905486 0.5
A 27.458027545583583 27.57810457634649 21.143617750484477 2.5
E 26.845430219938542 29.953217789745782 21.626900007709363 0.5
E 28.070624871228624 25.2029913629472 20.66033549325959 0.5
E 25.177808207717792 27.18237348648324 20.198103776109548 0.5
E 29.738246883449374 27.97383566620974 22.089131724859406 0.5
P 28.27980871343496 28.250588128599986 18.88033659602905 0.5
P 26.636246377732206 26.905621024092994 23.406898904939904 0.5
A 39.48142500802132 24.99516821257908 19.436613234824808 2.5
E 39.97763739407308 22.98668913201096 20.840103545033337 0.5
E 38.98521262196956 27.003647293147203 18.03312292461628 0.5
E 41.166395898212 24.235223629287567 17.7533552838452 0.5
E 37.796454117830635 25.755112795870595 21.119871185804417 0.5
P 37.7024797117463 23.7151307079542 18.233759287076005 0.5
P 41.26037030429634 26.275205717203963 20.63946718257361 0.5
A 6.265826588487192 32.57588289117918 3.8539668523513058 2.5
E 4.255033826433872 34.00803064281776 4.248511254859348 0.5
E 8.276619350540512 31.143735139540595 3.459422449843263 0.5
E 7.71441483191283 34.61338595868229 3.840800572529659 0.5
E 4.817238345061554 30.538379823676067 3.8671331321729525 0.5
P 6.594923183855329 32.357859802053575 6.322602379018846 0.5
P 5.936729993119055 32.79390598030478 1.3853313256837656 0.5
A 16.788168723975218 6.874881029757584 24.313716473762867 2.5
E 17.294323899075703 4.559361985832091 25.10881300622762 0.5
E 16.282013548874733 9.190400073683078 23.518619941298113 0.5
E 15.899163632751165 7.457538796199329 26.576497920342042 0.5
E 17.67717381519927 6.292223263315839 22.05093502718369 0.5
P 19.069281804577937 7.615746391630845 25.019153663794473 0.5
P 14.5070556433725 6.134015667884324 23.60827928373126 0.5
A 9.410992697830837 8.198286469111356 32.71377291415879 2.5
E 9.13902202105864 10.302382833913816 31.391346947005808 0.5
E 9.682963374603034 6.094190104308895 34.03619888131177 0.5
E 8.454086676045561 6.8818731474848125 30.816040890896655 0.5
E 10.367898719616113 9.514699790737899 34.611504937420925 0.5
P 11.704540782447006 7.898562505657328 31.765193592602465 0.5
P 7.117444613214667 8.498010432565383 33.66235223571511 0.5
A 16.10332945534423 6.072178029640794 30.325454940587274 2.5
E 17.25574985241006 7.296018286505871 32.17589873981552 0.5
E 14.950909058278402 4.848337772775717 28.47501114135903 0.5
E 14.896986043201117 8.167849630045282 29.690713957794916 0.5
E 17.309672867487343 3.9765064292363066 30.960195923379633 0.5
P 17.96522708958859 6.672490922167451 28.7688684088902 0.5
P 14.24143182109987 5.471865137114137 31.88204147228435 0.5
A 23.379419157154974 28.026452455610556 22.04945139554611 2.5
E 24.77946329065017 29.66544220848482 20.783122443717694 0.5
E 21.979375023659777 26.387462702736293 23.315780347374528 0.5
E 25.253419707266204 26.37312298320787 21.9814543818802 0.5
E 21.505418607043744 29.67978192801324 22.11744840921202 0.5
P 24.261461311730653 28.93761338851859 24.20393216638016 0.5
P 22.497377002579295 27.115291522702524 19.894970624712062 0.5
A 38.02265969141121 14.748532121889095 36.74959397621967 2.5
E 36.845998305223915 12.864211825587944 37.896243444542016 0.5
E 39.1993210775985 16.632852418190247 35.60294450789733 0.5
E 39.033659019292365 15.44286739929595 38.928074841770886 0.5
E 37.01166036353005 14.05419684448224 34.571113110668456 0.5
P 39.98310564610626 13.259493659156696 36.31437435898729 0.5
P 36.06221373671615 16.237570584621494 37.184813593452056 0.5
A 0.2785685308352025 17.198592223487907 25.063979889784296 2.5
E -2.059055850218895 17.164203215665196 25.949603765502765 0.5
E 2.6161929118893 17.232981231310617 24.178356014065827 0.5
E 0.8514425114585319 19.046084204894743 26.64783240216113 0.5
E -0.2943054497881269 15.35110024208107 23.480127377407463 0.5
P 0.9548285809833775 15.514670973910423 26.783596582479262 0.5
P -0.39769151931297253 18.88251347306539 23.34436319708933 0.5
70
Properties=species:S:1:pos:R:3:radius:R:1
A 13.548817269069893 3.7935102538513448 37.83643294374228 2.5
E 11.928507803511923 5.691078763261754 37.990805829693834 0.5
E 15.169126734627863 1.895941744440935 37.68206005779073 0.5
E 11.741673175274396 2.196777179659422 38.495730838507214 0.5
E 15.35596136286539 5.390243328043267 37.17713504897735 0.5
P 12.949795182596356 3.477793225683117 35.42988036836785 0.5
P 14.14783935554343 4.109227282019572 40.242985519116715 0.5
A 26.945230779162646 27.196232389704008 21.307112679364227 2.5
E 26.059599339280783 29.445188735329292 20.668479523190474 0.5
E 27.83086221904451 24.947276044078723 21.94574583553798 0.5
E 25.24237631461875 26.107772072576026 19.835535018953305 0.5
E 28.648085243706543 28.28469270683199 22.77869033977515 0.5
P 28.54708708522621 27.282542838140596 19.389664666714346 0.5
P 25.343374473099082 27.10992194126742 23.22456069201411 0.5
A 40.24285520299205 25.016803218330953 19.59363335790268 2.5
E 41.12870915566226 23.254051961747304 21.129201911224687 0.5
E 39.35700125032184 26.7795544749146 18.05806480458067 0.5
E 40.36641870711824 23.412287763725185 17.680452180810605 0.5
E 40.11929169886585 26.62131867293672 21.506814534994753 0.5
P 37.90833280323086 24.262987482660673 20.075055212069326 0.5
P 42.57737760275323 25.770618954001232 19.11221150373603 0.5
A 6.4313566417532355 33.23480147632505 3.445156710345512 2.5
E 6.236691323092666 30.814166514827516 2.8513286233655046 0.5
E 6.626021960413805 35.655436437822594 4.0389847973255195 0.5
E 4.5809294965171645 32.97612965178074 5.106182979662208 0.5
E 8.281783786989307 33.49347330086937 1.784130441028816 0.5
P 8.101094583432708 32.66592954841643 5.2166983936691835 0.5
P 4.761618700073762 33.80367340423368 1.6736150270218408 0.5
A 18.26189430070683 7.370459433443632 24.723835387110597 2.5
E 16.19763743609273 6.157519505220299 25.44329374408139 0.5
E 20.326151165320933 8.583399361666965 24.004377030139803 0.5
E 16.86065734177647 9.278593703084614 23.920368776759393 0.5
E 19.663131259637193 5.462325163802651 25.5273019974618 0.5
P 18.421200866237363 8.437136675885428 26.979233595550873 0.5
P 18.1025877351763 6.303782191001836 22.46843717867032 0.5
A 9.723336354871122 7.913220530536476 32.81604358881569 2.5
E 8.568631651255668 6.156850939117772 31.462595065307163 0.5
E 10.878041058486577 9.66959012195518 34.169492112324214 0.5
E 10.578115363587507 6.152599722273937 34.37153939908654 0.5
E 8.868557346154738 9.673841338799015 31.26054777854484 0.5
P 11.76931042452732 7.6575249540162185 31.402321594065025 0.5
P 7.677362285214924 8.168916107056734 34.22976558356635 0.5
A 16.838971258189236 5.970046555011745 30.750819766412327 2.5
E 17.099568917564152 4.0800901144733785 32.36641671887138 0.5
E 16.57837359881432 7.860002995550111 29.135222813953277 0.5
E 14.998560885362654 6.915686190004297 32.15390755422982 0.5
E 18.67938163101582 5.024406920019193 29.347731978594837 0.5
P 18.510790183647295 7.305647668218008 32.043565351158826 0.5
P 15.167152332731177 4.634445441805482 29.458074181665832 0.5
A 24.173448613264412 28.354047868840123 22.27322274367666 2.5
E 24.17532092098528 27.839551021767203 24.719707873166648 0.5
E 24.171576305543546 28.868544715913043 19.82673761418667 0.5
E 22.008737555406917 27.1298751455422 22.017435371973797 0.5
E 26.338159671121907 29.578220592138045 22.52901011537952 0.5
P 22.922839749369267 30.47222966884814 22.71963436052989 0.5
P 25.424057477159558 26.235866068832106 21.826811126823426 0.5
A 37.324954961812054 14.117041425182473 36.217913770619866 2.5
E 36.47274554887204 12.072735705633637 37.37746249383804 0.5
E 38.17716437475207 16.16134714473131 35.05836504740169 0.5
E 36.33081860576303 15.548238452892223 38.01050072066075 0.5
E 38.31909131786108 12.685844397472723 34.42532682057898 0.5
P 39.45461033817663 13.967077453191736 37.5187130576072 0.5
P 35.19529958544748 14.26700539717321 34.91711448363253 0.5
A 0.3287950842347993 16.97662331411925 24.36655617506048 2.5
E -1.8261683810800358 17.243778216249506 25.6054107756599 0.5
E 2.483758549549634 16.709468411988997 23.12770157446106 0.5
E 1.5481974637906963 16.74797915199139 26.536989238727397 0.5
E -0.8906072953210977 17.205267476247112 22.196123111393565 0.5
P -0.016444397707792602 14.501476832516007 24.299775978030322 0.5
P 0.6740345661773912 19.451769795722495 24.43333637209064 0.5
70
Properties=species:S:1:pos:R:3:radius:R:1
A 14.346180914405698 3.086617552981629 37.35812957412572 2.5
E 12.095216534638721 2.1009204249347806 37.81808667297326 0.5
E 16.597145294172673 4.072314681028477 36.89817247527818 0.5
E 13.703030772449509 5.1452684826416615 38.622374109297375 0.5
E 14.989331056361888 1.0279666233215963 36.09388503895406 0.5
P 15.22340224105125 2.0666383759540503 39.46529003847297 0.5
P 13.468959587760146 4.106596730009207 35.25096910977847 0.5
A 27.246518839915826 27.14094079804273 22.048687778943002 2.5
E 29.142383311241165 26.31045749228481 20.646548204855044 0.5
E 25.350654368590487 27.97142410380065 23.45082735303096 0.5
E 25.763489940842895 27.15333594333357 20.03610942149015 0.5
E 28.729547738988757 27.128545652751892 24.061266136395854 0.5
P 26.571001859462562 24.782945073018936 22.531940269768125 0.5
P 27.92203582036909 29.498936523066526 21.56543528811788 0.5
A 0.7910703592253931 24.577218753749317 19.550418677591715 2.5
E 2.50520581660661 22.76371470762981 19.701887184076313 0.5
E -0.9230650981558237 26.390722799868826 19.398950171107117 0.5
E -0.29828683187509397 23.38800227361684 17.64016605723518 0.5
E 1.8804275503258803 25.766435233881793 21.46067129794825 0.5
P -0.6666815208784076 23.333447376811613 21.156031401122625 0.5
P 2.248822239329194 25.820990130687022 17.944805954060804 0.5
A 6.569516979241025 34.150647326654806 3.5612224748552745 2.5
E 4.202825402735863 34.95278984507714 3.634286568899941 0.5
E 8.936208555746187 33.34850480823247 3.4881583808106083 0.5
E 5.793751676508288 31.941626161541503 2.6846303877603486 0.5
E 7.345282281973763 36.35966849176811 4.4378145619502005 0.5
P 6.786217640927794 35.00316880569245 1.2210840278816808 0.5
P 6.3528163175542565 33.298125847617165 5.901360921828868 0.5
A 19.576172966278268 7.382703604528947 25.33228695453976 2.5
E 19.829938064888452 6.592691930081984 22.974006897174828 0.5
E 19.322407867668083 8.172715278975911 27.690567011904694 0.5
E 21.972867774203838 6.827098497532647 25.776310560604266 0.5
E 17.179478158352698 7.938308711525247 24.888263348475256 0.5
P 20.240595476726444 9.688605709848561 24.631317477106823 0.5
P 18.91175045583009 5.076801499209333 26.0332564319727 0.5
A 10.13274057856862 7.703239471892753 32.70257348475279 2.5
E 11.189130255022063 7.2960971253139855 34.93153646360742 0.5
E 9.076350902115179 8.11038181847152 30.473610505898158 0.5
E 12.395108954675937 8.028896855208966 31.68983630291301 0.5
E 7.870372202461304 7.377582088576541 33.71531066659257 0.5
P 10.258160601976902 5.258207288400363 32.19652265784477 0.5
P 10.007320555160339 10.148271655385145 33.20862431166081 0.5
A 17.16395471846118 5.388356652515596 31.6428914235098 2.5
E 16.472672663711556 2.985834156467477 31.646735479037257 0.5
E 17.855236773210805 7.790879148563715 31.63904736798234 0.5
E 17.735141903599484 5.220123046701372 29.214838159389018 0.5
E 16.592767533322878 5.556590258329821 34.07094468763058 0.5
P 14.830315003270773 6.058866242198326 31.047456649728 0.5
P 19.49759443365159 4.717847062832866 32.23832619729159 0.5
A 24.480634648663436 28.77855068962851 22.978837374659502 2.5
E 22.370524542866313 29.110246170421025 24.27784216658088 0.5
E 26.59074475446056 28.446855208835995 21.679832582738126 0.5
E 23.142543597081673 28.408100855902564 20.899828173532857 0.5
E 25.8187257002452 29.149000523354456 25.057846575786147 0.5
P 24.563987387608748 31.22860069497825 22.48862589764568 0.5
P 24.397281909718124 26.32850068427877 23.469048851673325 0.5
A 36.812226759397355 13.213832753489864 35.69997656098034 2.5
E 35.99800956536581 10.927719356742905 36.300589496370456 0.5
E 37.6264439534289 15.499946150236823 35.09936362559022 0.5
E 35.714101196586235 13.017154514317145 33.46269295836373 0.5
E 37.910352322208475 13.410510992662584 37.937260163596946 0.5
P 34.719102155069024 14.2063060314427 36.64009686355091 0.5
P 38.905351363725686 12.221359475537028 34.75985625840977 0.5
A 0.3271672547932139 16.594525039498556 24.011901304688028 2.5
E -1.5032932550986906 17.929349586521283 22.954707968352455 0.5
E 2.1576277646851185 15.259700492475831 25.0690946410236 0.5
E -1.213862563909655 15.956156076804394 25.87408071745627 0.5
E 1.8681970734960827 17.23289400219272 22.149721891919786 0.5
P -0.39715409626263515 14.579400106365414 22.721695862027723 0.5
P 1.051488605849063 18.6096499726317 25.302106747348333 0.5
70
Properties=species:S:1:pos:R:3:radius:R:1
A 14.748166294800152 2.328512846896497 37.03054124250918 2.5
E 12.274556619810008 2.6803408096318346 37.11698348005876 0.5
E 17.221775969790297 1.9766848841611588 36.944099004959604 0.5
E 14.558886379833213 1.5821096193480253 34.65208473971262 0.5
E 14.93744620976709 3.0749160744449684 39.40899774530574 0.5
P 15.05708099109216 4.688406765390005 36.265379557718255 0.5
P 14.439251598508143 -0.031381071597011534 37.795702927300106 0.5
A 27.515191424361777 27.065108249085572 22.61890394878096 2.5
E 25.98451949097334 27.557332816086376 24.53325982164721 0.5
E 29.045863357750214 26.57288368208477 20.704548075914712 0.5
E 25.67432063956943 25.82829630566704 21.46500145276364 0.5
E 29.356062209154125 28.301920192504106 23.77280644479828 0.5
P 26.795303803941316 29.181239434115902 21.499193887333256 0.5
P 28.23507904478224 24.948977064055242 23.738614010228666 0.5
A 1.6107429645728766 24.4096856686795 19.62474858463603 2.5
E 2.4345281333102706 23.731884915556638 17.363783274235534 0.5
E 0.7869577958354828 25.087486421802364 21.885713895036528 0.5
E 1.5511406154842946 22.00976774993494 20.322488896838163 0.5
E 1.6703453136614586 26.80960358742406 18.9270082724339 0.5
P 3.970366993046789 24.58569737952536 20.431714706535637 0.5
P -0.7488810639010357 24.23367395783364 18.817782462736425 0.5
A 7.004453791555326 34.571010500463366 4.065717125650968 2.5
E 7.019422106899628 36.15118852811253 6.002935066531797 0.5
E 6.989485476211024 32.990832472814205 2.1284991847701393 0.5
E 4.567923008086465 35.013833602411545 3.723335114456444 0.5
E 9.440984575024187 34.12818739851519 4.408099136845492 0.5
P 7.564001547108297 36.456997006596374 2.5230048362269715 0.5
P 6.444906036002355 32.68502399433036 5.608429415074965 0.5
A 20.37198472540627 7.640945500127848 25.535227549367193 2.5
E 19.049664786403447 7.101999339319216 27.58730138202171 0.5
E 21.694304664409096 8.17989166093648 23.483153716712675 0.5
E 19.78449590035435 10.057405768979805 25.79130693061299 0.5
E 20.959473550458192 5.22448523127589 25.279148168121395 0.5
P 22.41069187930427 7.987726129358712 26.94001092620348 0.5
P 18.333277571508273 7.294164870896984 24.130444172530904 0.5
A 10.397647256205728 7.63398645285453 32.82978192908184 2.5
E 11.491039899072094 8.783039928784039 30.897382219399695 0.5
E 9.304254613339362 6.4849329769250215 34.762181638763984 0.5
E 8.83902402194514 6.472803865255196 31.25741154908901 0.5
E 11.956270490466316 8.795169040453864 34.402152309074665 0.5
P 12.017889874503489 5.741545936560809 32.62125675040744 0.5
P 8.777404637907967 9.526426969148252 33.03830710775624 0.5
A 17.738901851718246 4.870071676880629 32.41824458284661 2.5
E 17.68770979084177 2.5446825693834283 31.501759519337213 0.5
E 17.790093912594724 7.19546078437783 33.33472964635601 0.5
E 18.073216839407113 3.955260914651564 34.7207116853946 0.5
E 17.40458686402938 5.784882439109694 30.11577748029863 0.5
P 20.21591877978092 4.9454823395384135 32.0885471912165 0.5
P 15.261884923655572 4.794661014222845 32.747941974476724 0.5
A 25.040255618808168 29.263783776222137 23.354861194319664 2.5
E 24.75515616399292 29.911828224584895 25.752517694698792 0.5
E 25.325355073623417 28.61573932785938 20.957204693940536 0.5
E 22.587855383618006 29.572213700032634 22.979889103974912 0.5
E 27.49265585399833 28.95535385241164 23.729833284664416 0.5
P 25.433258656077996 31.65855085780742 22.754328732539097 0.5
P 24.64725258153834 26.869016694636855 23.95539365610023 0.5
A 36.73827165681931 12.501422007893636 35.73175792448253 2.5
E 39.22554085606123 12.563322233590203 35.97601248956092 0.5
E 34.251002457577385 12.439521782197069 35.48750335940414 0.5
E 36.945323636677536 10.618244314023697 34.10057085644038 0.5
E 36.53121967696108 14.384599701763575 37.36294499252468 0.5
P 36.59467009645275 10.858312110360949 37.61047250006097 0.5
P 36.88187321718586 14.144531905426323 33.85304334890409 0.5
A 0.27970009664702383 16.235919847042545 23.99264479472243 2.5
E 2.055386825827392 15.447470766120043 22.41934104572623 0.5
E -1.4959866325333446 17.024368927965046 25.56594854371863 0.5
E -1.1840580875322633 16.81491567039243 22.05043579083231 0.5
E 1.7434582808263108 15.65692402369266 25.93485379861255 0.5
P -0.6972075847953871 13.935243450124423 24.04303823281671 0.5
P 1.2566077780894347 18.53659624396067 23.94225135662815 0.5
70
Properties=species:S:1:pos:R:3:radius:R:1
A 14.902387390058278 2.220726260106195 36.54878463732387 2.5
E 14.924752379979973 1.1757195461328969 34.277780283524315 0.5
E 14.880022400136584 3.2657329740794925 38.819788991123424 0.5
E 17.363001681400114 2.6309733717597634 36.38424097556739 0.5
E 12.441773098716443 1.8104791484526261 36.71332829908035 0.5
P 14.46093850686779 4.454480560634935 35.516571186336506 0.5
P 15.343836273248767 -0.013028040422545573 37.58099808831123 0.5
A 27.8215427443116 26.650138723469695 23.005987195092086 2.5
E 28.358451846848766 29.071913001060288 23.317014467229036 0.5
E 27.284633641774434 24.2283644458791 22.694959922955135 0.5
E 25.78216044135975 27.270049097084566 21.699606335200478 0.5
E 29.86092504726345 26.030228349854823 24.312368054983693 0.5
P 29.16417018259044 26.623297019259834 20.897283544766708 0.5
P 26.47891530603276 26.676980427679556 25.114690845417464 0.5
A 2.2040567550412273 24.711757898499595 19.995060653767887 2.5
E 1.8430898306401102 22.979068981638473 21.7607027457205 0.5
E 2.565023679442344 26.444446815360717 18.229418561815272 0.5
E 4.420531584003739 25.277650921426645 21.003527023647344 0.5
E -0.012418073921284467 24.145864875572546 18.98659428388843 0.5
P 3.3026659722170923 23.000748195432752 18.540583571120273 0.5
P 1.1054475378653623 26.422767601566438 21.4495377364155 0.5
A 7.5573020391409225 34.773423535352556 4.66409793674511 2.5
E 7.150404916130223 36.72546241227736 6.172069738291764 0.5
E 7.964199162151622 32.82138465842775 3.1561261351984555 0.5
E 5.555501171111073 35.40511033406195 3.3062448249943137 0.5
E 9.559102907170772 34.14173673664316 6.021951048495906 0.5
P 8.998561216402479 36.2018898497298 3.2038733058581634 0.5
P 6.116042861879366 33.34495722097531 6.124322567632056 0.5
A 21.209870289837813 7.497774999604237 25.263181832126627 2.5
E 19.939382100493592 9.465883845353648 24.390022435441185 0.5
E 22.480358479182033 5.5296661538548255 26.136341228812068 0.5
E 22.9035694460029 9.03727803898335 26.268822702491622 0.5
E 19.516171133672724 5.958271960225124 24.25754096176163 0.5
P 19.880493394768987 7.578260793541507 27.37890372023758 0.5
P 22.53924718490664 7.417289205666967 23.147459944015672 0.5
A 10.390026334648864 7.758083958262501 32.87686297850881 2.5
E 9.216359488655371 8.693094685401597 34.876428199938246 0.5
E 11.563693180642357 6.823073231123406 30.877297757079376 0.5
E 11.58194419765851 6.120417108229387 34.342256815039036 0.5
E 9.198108471639218 9.395750808295617 31.411469141978586 0.5
P 8.532114080947457 6.116803291089127 32.553815258955304 0.5
P 12.247938588350271 9.399364625435876 33.19991069806232 0.5
A 18.390512287934918 4.416983437400889 33.04323367142757 2.5
E 18.641470599826203 2.8746167637792777 31.091791904478487 0.5
E 18.139553976043633 5.9593501110225 34.99467543837666 0.5
E 15.90523445630244 4.181032495202505 32.91011247675464 0.5
E 20.875790119567394 4.652934379599273 33.1763548661005 0.5
P 18.4925614196712 2.4636703040358396 34.60020309236517 0.5
P 18.288463156198635 6.370296570765938 31.48626425048997 0.5
A 25.083523644392006 29.60201742780635 23.72372589940066 2.5
E 27.491552693675004 29.057115988363073 23.330688345085782 0.5
E 22.675494595109008 30.146918867249624 24.116763453715535 0.5
E 25.74762935890591 31.75402901696102 24.808995322214138 0.5
E 24.4194179298781 27.450005838651677 22.63845647658718 0.5
P 24.98174104391849 30.751768940715365 21.50613446705695 0.5
P 25.185306244865522 28.452265914897332 25.94131733174437 0.5
A 36.8147342900638 12.425067514775815 35.92769565914709 2.5
E 38.54103103355663 13.33218166683238 34.36339278932136 0.5
E 35.088437546570965 11.51795336271925 37.49199852897282 0.5
E 35.29456555126078 11.981868804241572 33.99309960090984 0.5
E 38.33490302886681 12.868266225310059 37.862291717384345 0.5
P 37.79401288115643 10.137991036360683 35.682146024840414 0.5
P 35.83545569897116 14.712143993190947 36.17324529345377 0.5
A 0.2553553730518984 15.748253298308565 23.62848664321141 2.5
E 2.1343153457014865 16.219404548887987 25.20884290692491 0.5
E -1.6236045995976895 15.277102047729144 22.04813037949791 0.5
E 0.5697449234478498 13.294056181255172 23.98636332762803 0.5
E -0.05903417734405292 18.20245041536196 23.27060995879479 0.5
P -1.3634925604436723 15.81848868628819 25.53227191432075 0.5
P 1.8742033065474692 15.678017910328942 21.72470137210207 0.5
70
Properties=species:S:1:pos:R:3:radius:R:1
A 15.216489291016334 3.005256922536116 36.79717426447912 2.5
E 13.834830966184144 4.768066869238216 37.90781433454234 0.5
E 16.59814761584852 1.2424469758340166 35.6865341944159 0.5
E 13.189963108507538 2.1777875604944588 35.58949629147113 0.5
E 17.24301547352513 3.8327262845777734 38.00485223748711 0.5
P 15.700443736215693 4.572992725115907 34.91091008672424 0.5
P 14.732534845816975 1.437521119956325 38.68343844223399 0.5
A 27.99256762336932 26.238111684443588 22.748510105214475 2.5
E 29.328286166744764 28.295643626707065 22.266412314876952 0.5
E 26.65684907999388 24.18057974218011 23.230607895551998 0.5
E 25.938513519824813 27.36812348159076 21.880215755342245 0.5
E 30.04662172691383 25.108099887296415 23.616804455086704 0.5
P 28.489274491244938 25.378090960929583 20.454246248869374 0.5
P 27.495860755493705 27.098132407957593 25.042773961559575 0.5
A 2.193193073659968 25.161976370549358 20.1736345648216 2.5
E 0.7014321684136009 27.167530185791367 20.222657985208738 0.5
E 3.684953978906335 23.156422555307348 20.124611144434464 0.5
E 0.4098034845899192 23.864235564960346 18.996608492423267 0.5
E 3.9765826627300163 26.45971717613837 21.350660637219935 0.5
P 3.111980848488738 25.89928410526879 17.968593447484377 0.5
P 1.2744052988311978 24.424668635829924 22.378675682158825 0.5
A 7.723456041747665 35.142152949613966 5.048489758004197 2.5
E 8.267488703304947 37.182773533551284 3.7106197734502553 0.5
E 7.179423380190383 33.10153236567665 6.386359742558139 0.5
E 8.74229618879037 33.70667000057419 3.2732845704863673 0.5
E 6.704615894704961 36.57763589865374 6.823694945522027 0.5
P 9.940659960635832 35.3010753691385 6.192496072077493 0.5
P 5.5062521228594985 34.98323053008943 3.9044834439309017 0.5
A 21.71187024240233 7.349080711596866 25.13731675997322 2.5
E 22.65271886502066 9.64032261275838 25.476454519120164 0.5
E 20.771021619784 5.057838810435351 24.798179000826277 0.5
E 19.565909898319862 8.073637430100764 26.195556696517183 0.5
E 23.8578305864848 6.624523993092968 24.079076823429258 0.5
P 20.840286585520843 8.038448619199821 22.897871780290874 0.5
P 22.583453899283818 6.6597128039939095 27.376761739655567 0.5
A 10.64793786531704 7.775317985646671 33.11189737926657 2.5
E 12.264745621015702 9.001564224738306 31.65167382027778 0.5
E 9.031130109618378 6.549071746555035 34.57212093825537 0.5
E 9.704369410561151 6.626173631224911 31.10213475052411 0.5
E 11.591506320072929 8.92446234006843 35.12166000800904 0.5
P 12.304926474904285 5.9244297086796776 33.39225667353719 0.5
P 8.990949255729795 9.626206262613664 32.831538084995955 0.5
A 18.227834061852853 3.908738506357921 33.395093120937496 2.5
E 19.279042225456433 4.648257433329171 31.25078130745898 0.5
E 17.176625898249274 3.169219579386671 35.53940493441601 0.5
E 18.18930747346869 6.277616944453268 34.193172470071076 0.5
E 18.266360650237015 1.5398600682625738 32.597013771803915 0.5
P 15.959910540488053 4.211272309720932 32.3876229233326 0.5
P 20.495757583217653 3.6062047029949102 34.40256331854239 0.5
A 24.836318353223046 29.4619534625462 24.302087088600548 2.5
E 23.2541071862254 30.729619296738047 22.839339278535352 0.5
E 26.41852952022069 28.194287628354356 25.764834898665743 0.5
E 26.040203950069223 28.62707287149584 22.2763442943659 0.5
E 23.63243275637687 30.296834053596562 26.327829882835196 0.5
P 26.351992227357634 31.44840701888976 24.384153986651782 0.5
P 23.320644479088458 27.475499906202643 24.220020190549313 0.5
A 37.33827584863022 12.72410490355267 35.75308852836683 2.5
E 35.4178934987984 12.69342125177852 34.15271665159301 0.5
E 39.25865819846204 12.754788555326819 37.35346040514065 0.5
E 35.76351722343526 13.208212183644196 37.633454294311534 0.5
E 38.91303447382518 12.239997623461143 33.87272276242213 0.5
P 37.05145377341836 10.271616645705848 36.14428469692549 0.5
P 37.62509792384208 15.176593161399492 35.361892359808174 0.5
A 0.23756424290946201 15.101790200191772 23.52435135180158 2.5
E 0.23771040466596038 16.613483339994943 21.533174857939404 0.5
E 0.23741808115296364 13.590097060388603 25.515527845663758 0.5
E 1.4425827621837983 16.84635101791464 24.84890332189279 0.5
E -0.9674542763648744 13.357229382468905 22.19979938171037 0.5
P -1.9528536046354132 16.06162945982781 24.25289664814129 0.5
P 2.4279820904543374 14.141950940555734 22.79580605546187 0.5
70
Properties=species:S:1:pos:R:3:radius:R:1
A 15.697258267901944 3.7008011445155993 36.81213964486652 2.5
E 17.661705081202744 2.26473627263731 37.38543398590734 0.5
E 13.732811454601144 5.136866016393888 36.2388453038257 0.5
E 16.56968155493992 5.49544665850331 38.31816922205202 0.5
E 14.824834980863967 1.9061556305278888 35.30611006768102 0.5
P 16.973904783561657 4.684145012590689 34.90080280611388 0.5
P 14.42061175224223 2.7174572764405096 38.72347648361916 0.5
A 28.244794124963793 25.83306792187412 22.756922581741193 2.5
E 29.64831877938101 27.042143365587787 24.435688532030817 0.5
E 26.841269470546575 24.623992478160456 21.07815663145157 0.5
E 26.20660003764599 26.98906769574725 23.62837503898039 0.5
E 30.282988212281595 24.677068148000995 21.885470124501996 0.5
P 28.599594641967332 27.69097025897747 21.12220074028922 0.5
P 27.889993607960253 23.975165584770775 24.391644423193167 0.5
A 2.2574658932272453 25.229823234501705 20.279465957078934 2.5
E 4.54803390916407 24.291543102162294 19.928854266423723 0.5
E -0.03310212270957891 26.168103366841116 20.630077647734144 0.5
E 1.854024110991892 25.166564117062148 17.813044863184533 0.5
E 2.6609076754625987 25.293082351941262 22.745887050973334 0.5
P 1.3406600835195808 22.913440563758886 20.48884224505913 0.5
P 3.17427170293491 27.546205905244523 20.07008966909874 0.5
A 7.5059187180660984 35.61763402119681 5.495758774062864 2.5
E 9.589818989914074 36.978473122593 5.731293478730795 0.5
E 5.422018446218123 34.25679491980061 5.2602240693949325 0.5
E 8.5767732924804 33.7562468045229 6.775801003857973 0.5
E 6.435064143651797 37.47902123787071 4.215716544267755 0.5
P 6.633777595627886 36.58373679508479 7.630241215508105 0.5
P 8.378059840504312 34.651531247308824 3.3612763326176225 0.5
A 21.637037251213542 7.259373276209515 25.1073175978731 2.5
E 21.44755366527832 9.596833703774905 24.241075876280696 0.5
E 21.826520837148763 4.921912848644125 25.9735593194655 0.5
E 23.90059471260791 7.78461925393165 26.029502114037317 0.5
E 19.373479789819175 6.73412729848738 24.18513308170888 0.5
P 20.592813333834016 7.973792909515431 27.263518191027643 0.5
P 22.681261168593068 6.544953642903598 22.951117004718554 0.5
A 10.541698416308268 7.832106760061353 33.91986425953615 2.5
E 9.636996214366668 6.222285166267986 35.60509076121423 0.5
E 11.446400618249868 9.44192835385472 32.23463775785807 0.5
E 12.060906010538151 6.053864807525313 33.03676525949448 0.5
E 9.022490822078385 9.610348712597393 34.802963259577815 0.5
P 8.774349494494638 7.127599844270656 32.298091219259916 0.5
P 12.309047338121898 8.53661367585205 35.54163729981238 0.5
A 17.804280173579613 3.7511659104507356 33.87960872237462 2.5
E 20.147701149485084 4.6212595242997345 33.84334258356334 0.5
E 15.460859197674145 2.8810722966017366 33.9158748611859 0.5
E 18.59632264751279 1.6649375958866646 35.00669351909393 0.5
E 17.012237699646438 5.8373942250148065 32.75252392565531 0.5
P 17.442276238282076 4.819149301074942 36.11083363891234 0.5
P 18.16628410887715 2.683182519826529 31.6483838058369 0.5
A 25.067001953063755 28.820716515891437 24.749073960670884 2.5
E 26.333546950094586 30.18056046672937 26.42140413138044 0.5
E 23.800456956032924 27.460872565053503 23.076743789961327 0.5
E 23.305753614326967 30.591793813778388 24.642821929131784 0.5
E 26.828250291800543 27.049639218004486 24.855325992209984 0.5
P 26.30952682597089 29.945042818296017 22.893805164531585 0.5
P 23.82447708015662 27.696390213486858 26.604342756810183 0.5
A 37.976685988184805 12.980811707340116 35.63668895206663 2.5
E 36.21500473565449 14.668038894630383 36.184177383864004 0.5
E 39.73836724071512 11.29358452004985 35.08920052026925 0.5
E 39.52198285405059 14.061733861341855 37.27792778091932 0.5
E 36.43138912231902 11.899889553338378 33.995450123213935 0.5
P 37.105745829029914 11.485862973952592 37.44129182353571 0.5
P 38.847626147339696 14.47576044072764 33.83208608059755 0.5
A 0.6273541529431841 14.890540499258403 23.558829030515543 2.5
E -1.6620217861575257 14.159551858785495 24.24760578459987 0.5
E 2.9167300920438937 15.621529139731312 22.870052276431217 0.5
E -0.3763487621387256 16.49321656378049 21.92358902046665 0.5
E 1.6310570680250938 13.287864434736315 25.194069040564436 0.5
P 0.5907718112542334 16.664543047088646 25.319958410365018 0.5
P 0.6639364946321348 13.11653795142816 21.79769965066607 0.5
70
Properties=species:S:1:pos:R:3:radius:R:1
A 16.38340298635338 3.4769897818490008 36.88521252337143 2.5
E 14.091466226384894 4.306095451687304 37.44163832844096 0.5
E 18.675339746321868 2.6478841120106984 36.3287867183019 0.5
E 15.540540530943215 2.6174958980667236 34.694127599184114 0.5
E 17.226265441763548 4.3364836656312775 39.076297447558744 0.5
P 16.918761529355393 5.67331718275784 35.81772145621821 0.5
P 15.84804444335137 1.2806623809401616 37.95270359052465 0.5
A 28.4554208358171 25.98850707653822 23.018900287438505 2.5
E 29.47161435461753 23.71847543081096 23.27248865417666 0.5
E 27.439227317016673 28.258538722265477 22.765311920700352 0.5
E 27.113556997014342 25.619825882883365 25.095791140506833 0.5
E 29.79728467461986 26.357188270193074 20.942009434370178 0.5
P 30.303866715593312 26.968828709902574 24.387190214572488 0.5
P 26.60697495604089 25.008185443173865 21.650610360304523 0.5
A 2.368896768168164 25.004155220416095 20.238207528473442 2.5
E 0.39724135736830624 25.20479332697188 18.714291752827986 0.5
E 4.3405521789680215 24.80351711386031 21.762123304118898 0.5
E 1.3626120620896904 22.962063386394647 21.271286437238505 0.5
E 3.375181474246638 27.046247054437544 19.20512861970838 0.5
P 3.53077715417007 23.576007716962632 18.546927339680515 0.5
P 1.2070163821662578 26.432302723869558 21.92948771726637 0.5
A 7.184822263148511 35.795711990037084 5.726758078608278 2.5
E 9.26373060910074 36.631136708098225 6.83590443035029 0.5
E 5.105913917196281 34.96028727197594 4.617611726866267 0.5
E 5.813112306040324 37.341562847643964 7.133441027821183 0.5
E 8.556532220256697 34.249861132430205 4.320075129395374 0.5
P 7.400581116270241 37.57402879715794 3.9829010171462276 0.5
P 6.96906341002678 34.017395182916225 7.470615140070329 0.5
A 21.225277755051877 6.684075380118381 25.51873203602686 2.5
E 20.29983960546698 8.9400871036259 24.967392454017542 0.5
E 22.150715904636776 4.4280636566108615 26.07007161803618 0.5
E 19.509897982100767 5.619977105649848 24.043887265610667 0.5
E 22.940657528002987 7.748173654586914 26.993576806443055 0.5
P 22.790856391161793 6.851723719419501 23.576862429568568 0.5
P 19.659699118941962 6.516427040817262 27.460601642485155 0.5
A 10.16552071595859 8.034891830313168 34.269260953034824 2.5
E 10.409407342288599 9.620633508143781 32.351986156692895 0.5
E 9.92163408962858 6.449150152482553 36.18653574937675 0.5
E 7.770947222292008 8.707649315566314 34.52108460058395 0.5
E 12.56009420962517 7.362134345060022 34.0174373054857 0.5
P 9.48984542639529 6.22303623528732 32.684760335853895 0.5
P 10.841196005521889 9.846747425339014 35.85376157021575 0.5
A 17.15008814062019 3.771347162906984 33.96984643587117 2.5
E 18.296316222074886 1.5961922370499622 34.42246352989613 0.5
E 16.003860059165497 5.946502088764006 33.51722934184621 0.5
E 16.54278770774283 2.974696566958397 31.679315053811386 0.5
E 17.757388573497554 4.5679977588555705 36.26037781793095 0.5
P 15.012952822136441 2.831108429130467 34.86349276076412 0.5
P 19.28722345910394 4.711585896683501 33.07620011097822 0.5
A 25.586821952063783 28.48571581556238 25.127018497222366 2.5
E 25.75000162643557 30.92069137937265 25.669481765581313 0.5
E 25.423642277691997 26.05074025175211 24.58455522886342 0.5
E 23.161138348955674 28.767544587339188 24.591638631135556 0.5
E 28.01250555517189 28.20388704378557 25.662398363309176 0.5
P 26.169429411237 28.977108272815773 22.746030886698094 0.5
P 25.004214492890565 27.994323358308986 27.50800610774664 0.5
A 37.95826502079689 13.052088743625879 35.18151089700722 2.5
E 35.83273548068851 14.36294626323815 35.064136549712074 0.5
E 40.08379456090526 11.741231224013607 35.29888524430237 0.5
E 39.224573041158166 15.028302563582223 34.320672389862835 0.5
E 36.69195700043561 11.075874923669534 36.04234940415161 0.5
P 38.31685695000847 13.843436645050941 37.52569099401658 0.5
P 37.5996730915853 12.260740842200816 32.837330799997865 0.5
A 0.8681600177219503 14.865414619502392 24.05419384999318 2.5
E 2.8901186199350515 13.534595139176089 24.679176187120444 0.5
E -1.1537985844911511 16.196234099828693 23.429211512865916 0.5
E -0.3932289657991256 13.841215630231705 25.9541712873932 0.5
E 2.129549001243026 15.889613608773079 22.154216412593158 0.5
P 1.6235283008717634 16.71742324290605 25.554021445302176 0.5
P 0.11279173457213731 13.013405996098733 22.554366254684183 0.5
70
Properties=species:S:1:pos:R:3:radius:R:1
A 16.894920240267528 3.2685049646832978 37.312810155480236 2.5
E 17.187273368926093 1.334829304930315 35.755431559556115 0.5
E 16.602567111608963 5.202180624436281 38.870188751404356 0.5
E 18.63897351726718 4.544552514822824 36.055837277184985 0.5
E 15.150866963267875 1.9924574145437717 38.56978303377549 0.5
P 15.127773439588397 4.207973480740085 35.81461420962144 0.5
P 18.662067040946656 2.3290364486265105 38.81100610133903 0.5
A 29.09772972992289 26.11560963687518 23.314145425030098 2.5
E 30.764810988045472 24.371218205711116 22.659975253210817 0.5
E 27.430648471800307 27.860001068039246 23.96831559684938 0.5
E 28.221409825498238 24.606724779619537 25.104488943088583 0.5
E 29.97404963434754 27.624494494130825 21.523801906971613 0.5
P 30.741780673149968 27.08016394971933 24.931776864403158 0.5
P 27.45367878669581 25.15105532403103 21.696513985657038 0.5
A 2.545765663787438 24.668506552351776 20.05735260990164 2.5
E 1.5841996721197358 22.770661495292003 21.370202556796364 0.5
E 3.5073316554551406 26.566351609411548 18.744502663006912 0.5
E 4.784067504490079 23.555362145494048 20.08759164738807 0.5
E 0.307463823084797 25.781650959209504 20.027113572415207 0.5
P 1.9841646367452368 23.48145403924432 17.930027853887648 0.5
P 3.1073666908296396 25.855559065459232 22.18467736591563 0.5
A 7.001551700331625 35.30305311714658 6.086495593167804 2.5
E 8.632054889623761 37.1967927150972 6.014317446461133 0.5
E 5.371048511039489 33.40931351919596 6.158673739874475 0.5
E 6.32567861779378 35.79517850483431 3.730437830910261 0.5
E 7.67742478286947 34.810927729458854 8.442553355425346 0.5
P 8.772047372737799 33.74691593233702 5.253559739668873 0.5
P 5.231056027925451 36.85919030195615 6.919431446666735 0.5
A 20.88853947241252 6.542974165397335 25.857724945213988 2.5
E 20.951273069712936 7.773863767330109 23.68264442173346 0.5
E 20.825805875112106 5.312084563464561 28.032805468694516 0.5
E 20.9688019394856 8.716625246252082 27.090120545286926 0.5
E 20.80827700533944 4.3693230845425886 24.62532934514105 0.5
P 18.39061584824987 6.643730140672102 25.8426982590411 0.5
P 23.386463096575174 6.442218190122568 25.872751631386876 0.5
A 9.679762450523668 8.269993917389199 34.60130500755624 2.5
E 10.188595416259638 6.615893214130792 36.40547791403173 0.5
E 9.170929484787699 9.924094620647605 32.797132101080756 0.5
E 11.49923576011854 7.292984429784441 33.19241560919951 0.5
E 7.860289140928797 9.247003404993958 36.010194405912976 0.5
P 8.04250685390717 6.670180389314707 33.59632202922396 0.5
P 11.317018047140166 9.86980744546369 35.60628798588852 0.5
A 16.65550199025621 3.5778113622729415 33.70281197314418 2.5
E 15.127990545712459 2.2906402287392726 32.199515841377504 0.5
E 18.183013434799957 4.86498249580661 35.206108104910854 0.5
E 16.51818201873225 5.541163874091578 32.161257517487414 0.5
E 16.792821961780167 1.6144588504543051 35.244366428800944 0.5
P 14.681204137294895 4.437135158831739 34.97313106709626 0.5
P 18.629799843217523 2.7184875657141436 32.4324928791921 0.5
A 25.445488887381025 28.336790171675485 25.373307396874214 2.5
E 24.321091546779435 30.193142602536685 26.61414835077748 0.5
E 26.569886227982614 26.480437740814285 24.132466442970948 0.5
E 23.525664753369128 28.242469548075295 23.77475213838957 0.5
E 27.36531302139292 28.431110795275675 26.97186265535886 0.5
P 26.58566690633829 30.00863324816298 23.90533777433862 0.5
P 24.30531086842376 26.66494709518799 26.84127701940981 0.5
A 37.68921739127388 13.034583201751396 34.74487456294912 2.5
E 35.65216264190078 14.222650382946286 33.91487195992628 0.5
E 39.72627214064698 11.846516020556505 35.57487716597196 0.5
E 38.952788743144495 13.789309326776252 32.72403911320627 0.5
E 36.42564603940326 12.27985707672654 36.765710012691976 0.5
P 38.399002842511734 15.100711186454465 35.960324999634416 0.5
P 36.97943194003602 10.968455217048326 33.52942412626383 0.5
A 0.950806248235529 14.615154769449374 24.434387088565895 2.5
E 2.6664486331528434 12.812089943186745 24.670031819826004 0.5
E -0.7648361366817856 16.418219595712003 24.198742357305786 0.5
E 0.02531724974355587 14.028200106305157 26.681374925000373 0.5
E 1.876295246727502 15.202109432593591 22.187399252131417 0.5
P 2.5160670318580096 16.244400440215045 25.504675471921413 0.5
P -0.6144545353869518 12.985909098683704 23.364098705210377 0.5
70
Properties=species:S:1:pos:R:3:radius:R:1
A 17.214866662977524 2.887785005414593 37.463517989300485 2.5
E 19.489390046245116 2.3617551183575287 36.56918251706882 0.5
E 14.94034327970993 3.413814892471657 38.35785346153215 0.5
E 16.492865707895692 3.632946704585973 35.18899635542907 0.5
E 17.936867618059356 2.1426233062432125 39.7380396231719 0.5
P 16.469710303660886 0.5601195225732729 36.937480538010924 0.5
P 17.960023022294163 5.215450488255913 37.989555440590046 0.5
A 29.279324561693052 26.057915615432567 23.848938655836967 2.5
E 30.515198138348946 24.528239940158834 25.392541205394302 0.5
E 28.043450985037158 27.5875912907063 22.305336106279633 0.5
E 27.43034251361807 24.38469425429605 23.67118696798788 0.5
E 31.128306609768035 27.731136976569083 24.026690343686056 0.5
P 28.13744808482679 27.111681531142786 25.807431828270097 0.5
P 30.421201038559314 25.004149699722348 21.890445483403838 0.5
A 2.62677986852937 23.96727049313006 20.339324455729475 2.5
E 2.1358850061373564 23.359119249202255 22.714019025265845 0.5
E 3.117674730921384 24.575421737057862 17.964629886193105 0.5
E 4.901200184441623 24.757623464961956 21.01189743056673 0.5
E 0.35235955261711727 23.17691752129816 19.66675148089222 0.5
P 3.541129069131672 21.6747840167414 19.941239923334187 0.5
P 1.7124306679270682 26.25975696951872 20.737408988124763 0.5
A 6.481134981702843 34.80818498598301 6.261737174595664 2.5
E 7.694025125939277 36.77639487587886 5.310397420706388 0.5
E 5.26824483746641 32.839975096087166 7.2130769284849405 0.5
E 5.600091268411509 34.252610707760226 3.989051715354362 0.5
E 7.362178694994178 35.3637592642058 8.534422633836966 0.5
P 8.48179973954803 33.37030910445039 5.837645821202505 0.5
P 4.480470223857656 36.24606086751563 6.685828527988823 0.5
A 20.764238466745617 6.184469583289995 25.828385175410578 2.5
E 18.73265137761973 7.60412092746365 26.15586641194741 0.5
E 22.795825555871502 4.76481823911634 25.500903938873744 0.5
E 19.344093171734368 4.380334340531423 24.839303092419165 0.5
E 22.184383761756866 7.988604826048567 26.81746725840199 0.5
P 21.089570974121028 7.174260514155272 23.555837558126747 0.5
P 20.438905959370206 5.1946786524247175 28.100932792694408 0.5
A 9.492787270784131 8.564650904690415 34.77486943973289 2.5
E 10.794395186334738 10.45092274981246 35.773766511745755 0.5
E 8.191179355233524 6.678379059568371 33.77597236772002 0.5
E 7.3593032482783585 9.749350549769417 35.317762317437385 0.5
E 11.626271293289903 7.3799512596114125 34.23197656202839 0.5
P 9.55652705340526 9.699756748763807 32.54833132803081 0.5
P 9.429047488163002 7.429545060617024 37.001407551434966 0.5
A 16.02452755522298 4.053836109842741 33.20016168912427 2.5
E 15.213933951347084 6.085785544646477 31.9901536297481 0.5
E 16.83512115909888 2.021886675039005 34.410169748500444 0.5
E 18.20629546314664 4.202763934312179 31.988671161281708 0.5
E 13.842759647299323 3.9049082853733026 34.411652216966836 0.5
P 16.93712100540161 5.5026293999633875 35.02174649285741 0.5
P 15.111934105044353 2.605042819722094 31.378576885391137 0.5
A 25.482861453164475 28.377446703918096 25.34999464091548 2.5
E 24.499248404413073 30.232564199949117 26.706845570916848 0.5
E 26.466474501915876 26.522329207887076 23.99314371091411 0.5
E 25.95946303422388 29.985881035672975 23.496406247187274 0.5
E 25.00625987210507 26.769012372163218 27.203583034643685 0.5
P 27.731273404577664 28.848061276951952 26.336486212288754 0.5
P 23.234449501751286 27.90683213088424 24.363503069542205 0.5
A 37.525179894245426 12.87107833841481 34.541508892197754 2.5
E 35.58073879204467 14.312510154025738 35.16714706320197 0.5
E 39.46962099644618 11.429646522803882 33.915870721193535 0.5
E 36.555847636404124 12.554194386733759 32.2589709330225 0.5
E 38.49451215208673 13.18796229009586 36.824046851373005 0.5
P 38.76192714974317 14.888963092832714 33.73615347754705 0.5
P 36.28843263874768 10.853193583996905 35.34686430684846 0.5
A 0.8134807096665161 14.222061651619716 24.49999377056184 2.5
E 2.0492599753501626 12.16040078799156 25.187310356926044 0.5
E -0.4222985560171303 16.283722515247874 23.812677184197636 0.5
E 2.0397046245394206 15.536334703782819 26.237538375731045 0.5
E -0.4127432052063885 12.907788599456614 22.762449165392635 0.5
P 2.6077004612858965 14.74382867601167 22.83911007350265 0.5
P -0.9807390419528642 13.700294627227763 26.16087746762103 0.5
70
Properties=species:S:1:pos:R:3:radius:R:1
A 17.76731497601416 2.5745924375211207 37.669613213043036 2.5
E 16.721004879290323 2.2808664299834978 35.41817806763245 0.5
E 18.813625072737995 2.8683184450587436 39.921048358453625 0.5
E 17.24760537000049 0.19239690263146425 38.2219232337462 0.5
E 18.28702458202783 4.956787972410777 37.11730319233987 0.5
P 19.977549603132083 1.8754004280930774 36.733668007894195 0.5
P 15.557080348896235 3.273784446949164 38.605558418191876 0.5
A 29.249496293557165 25.593951679018573 24.34239192976406 2.5
E 26.94156748433597 25.1670103038257 23.48147052004341 0.5
E 31.55742510277836 26.02089305421145 25.20331333948471 0.5
E 29.200008237547923 27.883502522074615 23.33964177674789 0.5
E 29.298984349566407 23.304400835962532 25.345142082780228 0.5
P 28.289800746063378 26.50261993487983 26.464491469585603 0.5
P 30.209191841050952 24.685283423157315 22.220292389942514 0.5
A 2.475651516832364 23.28426707236033 20.536840240022755 2.5
E 1.2151697485431208 24.98861684330551 19.21155628173723 0.5
E 3.7361332851216074 21.579917301415147 21.86212419830828 0.5
E 4.629963759860185 24.176335899076026 19.635090846930673 0.5
E 0.3213392738045435 22.392198245644632 21.438589633114837 0.5
P 2.6175122631657888 24.880952722912937 22.455295468056114 0.5
P 2.3337907704989393 21.68758142180772 18.618385011989396 0.5
A 6.369888744183079 34.8678099818356 5.545427071981129 2.5
E 7.643314255783558 36.8175294959158 6.4548121844718676 0.5
E 5.0964632325826 32.9180904677554 4.63604195949039 0.5
E 8.089735185428514 34.58009452971566 3.753961739593503 0.5
E 4.650042302937644 35.15552543395554 7.336892404368754 0.5
P 7.662373051608258 33.329689819095975 7.033268017792667 0.5
P 5.0774044367579005 36.40593014457522 4.05758612616959 0.5
A 20.306798742741904 6.02432619746454 25.928066056193476 2.5
E 18.245596929401422 6.032404506165571 24.513364029047384 0.5
E 22.368000556082386 6.016247888763509 27.342768083339568 0.5
E 21.13156697755323 8.062356033310909 24.738027507638403 0.5
E 19.482030507930578 3.9862963616181712 27.11810460474855 0.5
P 19.157362166184093 7.472210560640477 27.611047466471824 0.5
P 21.456235319299715 4.5764418342886035 24.245084645915128 0.5
A 9.43265939328629 8.878231241259714 34.82746387218242 2.5
E 9.655269370793446 6.909087407384839 36.35157586263024 0.5
E 9.210049415779133 10.84737507513459 33.3033518817346 0.5
E 9.203750228526687 7.338337210850768 32.87136393368236 0.5
E 9.661568558045893 10.41812527166866 36.78356381068248 0.5
P 6.953134158044003 8.843605577028617 35.144884210493046 0.5
P 11.912184628528577 8.912856905490811 34.510043533871794 0.5
A 15.338207960397108 4.443959036952682 32.471072493343776 2.5
E 16.52283465972033 2.4991771903355495 33.50281042146223 0.5
E 14.153581261073885 6.388740883569815 31.439334565225327 0.5
E 16.057070310838817 3.678264545255572 30.202383694389354 0.5
E 14.6193456099554 5.209653528649793 34.7397612922982 0.5
P 13.257367624290776 3.0722682866549746 32.274685168957184 0.5
P 17.41904829650344 5.81564978725039 32.66745981773037 0.5
A 25.60958985077058 28.043703581394524 25.034449067136684 2.5
E 24.37457016266489 30.094051001057828 25.756115076223487 0.5
E 26.844609538876266 25.99335616173122 24.31278305804988 0.5
E 27.572035379377823 28.738583036918527 26.418627556183534 0.5
E 23.647144322163335 27.34882412587052 23.650270578089835 0.5
P 24.674959486808074 26.793416413992325 26.987203040833478 0.5
P 26.544220214733084 29.293990748796723 23.08169509343989 0.5
A 37.183946546168876 12.792613205713556 34.46035826314811 2.5
E 37.92215666814398 14.356183582206608 36.2659865453722 0.5
E 36.445736424193775 11.229042829220504 32.65472998092402 0.5
E 35.51367342226293 11.779571868045005 36.02046561193307 0.5
E 38.85421967007482 13.805654543382106 32.90025091436315 0.5
P 35.476541056142665 14.45964497683513 33.71485738004986 0.5
P 38.89135203619509 11.125581434591982 35.20585914624636 0.5
A 0.8920404389257642 13.488991976290585 24.304476598292574 2.5
E -0.12849442875137684 12.243657660607834 26.21697523255066 0.5
E 1.9125753066029052 14.734326291973336 22.39197796403449 0.5
E 2.49643638527765 11.607564088962214 23.935501325254375 0.5
E -0.7123555074261215 15.370419863618956 24.673451871330773 0.5
P -0.7310498947235095 12.412250806386252 22.737247763103465 0.5
P 2.515130772575038 14.565733146194917 25.871705433481683 0.5
70
Properties=species:S:1:pos:R:3:radius:R:1
A 18.289460160908092 2.489357462023337 38.3588563339828 2.5
E 17.090252438746795 0.9108196377075597 36.83566259177092 0.5
E 19.48866788306939 4.067895286339114 39.88205007619468 0.5
E 20.482166051434206 1.5770656425049387 37.57798213560498 0.5
E 16.09675427038198 3.401649281541735 39.13973053236062 0.5
P 18.352243253864035 4.199895965899977 36.536737701732235 0.5
P 18.22667706795215 0.7788189581466973 40.180974966233364 0.5
A 29.391530446941967 25.863747397052713 24.41993288032887 2.5
E 30.48010396028012 26.633070567496926 22.304950713624773 0.5
E 28.302956933603816 25.0944242266085 26.534915047032964 0.5
E 30.22340344976757 23.543190933028697 24.003994177577702 0.5
E 28.559657444116365 28.184303861076728 24.835871583080035 0.5
P 31.48270117484263 26.386394081433345 25.68636307188203 0.5
P 27.300359719041303 25.34110071267208 23.153502688775706 0.5
A 2.4401547531125614 22.31848754869019 20.75049551290985 2.5
E 0.25589365680999787 21.113705829669225 20.58465078826878 0.5
E 4.624415849415125 23.523269267711154 20.91634023755092 0.5
E 3.3513903230549085 20.922922958566286 18.887151956057437 0.5
E 1.5289191831702145 23.714052138814093 22.613839069762264 0.5
P 1.6347646617591671 24.006948529673892 19.092048553720446 0.5
P 3.2455448444659556 20.630026567706487 22.408942472099255 0.5
A 6.393070221393287 35.08203877628612 4.886097883026547 2.5
E 4.384869765768443 36.410995650505456 5.557666611075424 0.5
E 8.40127067701813 33.75308190206678 4.2145291549776704 0.5
E 7.877423209878534 36.95783293289984 5.6127976061506155 0.5
E 4.908717232908039 33.2062446196724 4.159398159902479 0.5
P 6.510659062713115 34.09955727087299 7.181942598140806 0.5
P 6.275481380073458 36.064520281699245 2.5902531679122887 0.5
A 19.82495830388911 5.79870661080962 25.645912797021012 2.5
E 19.482359480409364 8.196858271442093 26.263565335878273 0.5
E 20.16755712736886 3.4005549501771477 25.02826025816375 0.5
E 21.525309556627466 5.573185742734072 27.464688746766985 0.5
E 18.124607051150758 6.024227478885168 23.82713684727504 0.5
P 18.024560663515683 5.129371903305984 27.24608759555698 0.5
P 21.62535594426254 6.468041318313256 24.045737998485045 0.5
A 9.848755982075312 9.13315023895742 34.85342425483117 2.5
E 9.598150787760583 11.585593289962194 35.26902035462122 0.5
E 10.099361176390042 6.680707187952645 34.43782815504112 0.5
E 7.569549279103855 9.074036686813544 33.82788908084505 0.5
E 12.12796268504677 9.192263791101295 35.87895942881729 0.5
P 10.844955681790328 9.61484378212689 32.61164873334014 0.5
P 8.852556282360297 8.65145669578795 37.0951997763222 0.5
A 14.810486288405231 4.698642053206012 31.98907227901118 2.5
E 15.473635759752911 2.9120786279161566 30.37091780366992 0.5
E 14.147336817057552 6.485205478495867 33.60722675435244 0.5
E 17.094208255321824 4.627319981548687 33.00372844733432 0.5
E 12.526764321488638 4.769964124863336 30.97441611068804 0.5
P 15.581749380010798 6.445955502335894 30.375985500807374 0.5
P 14.039223196799664 2.951328604076129 33.60215905721498 0.5
A 25.518024964833103 27.415285213042843 24.76315829308928 2.5
E 24.887015022746205 29.775310680776276 24.232021545502494 0.5
E 26.14903490692 25.05525974530941 25.294295040676065 0.5
E 23.16449784428724 26.94324379832943 25.461790525133036 0.5
E 27.871552085378966 27.887326627756256 24.064526061045523 0.5
P 24.958796437446875 26.738929763264444 22.422259585389078 0.5
P 26.07725349221933 28.09164066282124 27.10405700078948 0.5
A 36.7278873470026 12.033454512718592 34.46533855047479 2.5
E 36.32353814321983 14.451283182104437 34.9558548569284 0.5
E 37.13223655078537 9.615625843332747 33.97482224402118 0.5
E 38.54950274349256 12.661269235508325 32.872364595533924 0.5
E 34.90627195051264 11.405639789928859 36.05831250541566 0.5
P 38.391683929722895 11.933688790423302 36.32862267587916 0.5
P 35.064090764282305 12.133220235013882 32.60205442507042 0.5
A 0.8366491068014505 13.035185997623147 24.38841072992819 2.5
E 1.4871769313375043 12.084411494806039 26.607158438501262 0.5
E 0.18612128226539681 13.985960500440255 22.169663021355117 0.5
E -0.7812707142082207 11.158103831521213 24.058413768598086 0.5
E 2.454568927811122 14.91226816372508 24.718407691258292 0.5
P -0.95476067387114 14.385219473688075 25.49215916649135 0.5
P 2.628058887474041 11.68515252155822 23.284662293365027 0.5
70
Properties=species:S:1:pos:R:3:radius:R:1
A 18.566139808330842 2.742007174919112 38.99217044501723 2.5
E 17.759454733394456 3.7611753738826703 36.85662476016369 0.5
E 19.372824883267228 1.7228389759555542 41.12771612987077 0.5
E 20.324692510063944 1.4905762120196993 37.73065828085702 0.5
E 16.80758710659774 3.993438137818525 40.25368260917744 0.5
P 20.149412237542695 4.651252242300022 39.305270568906664 0.5
P 16.98286737911899 0.8327621075382021 38.679070321127796 0.5
A 29.33638443966311 26.550955586281844 24.106406793874562 2.5
E 29.29916972394194 25.22081105185956 21.989963885955618 0.5
E 29.37359915538428 27.88110012070413 26.222849701793507 0.5
E 27.416388948593077 25.210751347030506 24.982460394611167 0.5
E 31.256379930733143 27.891159825533183 23.230353193137958 0.5
P 30.937081906145963 24.91249041587408 25.10800526939063 0.5
P 27.735686973180258 28.18942075668961 23.104808318358494 0.5
A 2.3673471351725426 21.383568275053815 20.427393918424375 2.5
E 1.3418254425225757 22.80270220624962 22.211872593901465 0.5
E 3.392868827822509 19.96443434385801 18.642915242947286 0.5
E 4.644438475375269 21.92262665557613 21.30732067149067 0.5
E 0.09025579496981573 20.844509894531498 19.54746716535808 0.5
P 2.252628844226917 19.397246310286576 21.941119377682135 0.5
P 2.4820654261181683 23.369890239821054 18.913668459166615 0.5
A 6.109204465195009 35.55738854130317 4.284691717559482 2.5
E 6.772676586345613 33.24611792979805 3.600708600188529 0.5
E 5.445732344044405 37.86865915280829 4.968674834930434 0.5
E 3.7387471200400144 35.060261141881746 3.6651787446968878 0.5
E 8.479661810350002 36.05451594072459 4.904204690422076 0.5
P 5.672470313500322 34.74443558501538 6.608131144703277 0.5
P 6.545938616889695 36.37034149759096 1.9612522904156862 0.5
A 19.433500794221068 5.540076483158876 25.3047794437532 2.5
E 19.601998097153924 5.855249802455798 27.77910246989762 0.5
E 19.265003491288212 5.224903163861953 22.830456417608783 0.5
E 19.33689661785156 3.0627995351873643 25.626907611037097 0.5
E 19.530104970590575 8.017353431130386 24.982651276469305 0.5
P 16.941056954931387 5.657399549318399 25.459566413923838 0.5
P 21.92594463351075 5.4227534169993525 25.149992473582564 0.5
A 10.350690676783481 9.41996160037702 34.939143913339585 2.5
E 9.01722840818405 7.7360543400243085 36.21833690767342 0.5
E 11.684152945382912 11.103868860729731 33.65995091900575 0.5
E 9.547540125448418 8.424280055540766 32.791222254348654 0.5
E 11.153841228118544 10.415643145213274 37.087065572330516 0.5
P 8.394462783589152 10.97658441911109 34.949034822527366 0.5
P 12.30691856997781 7.86333878164295 34.9292530041518 0.5
A 14.739223796235585 4.490951991427637 31.28150181284193 2.5
E 16.981221778778746 4.034669742042133 30.273904891862536 0.5
E 12.497225813692422 4.947234240813141 32.28909873382133 0.5
E 14.954458240330961 2.4370776081310717 32.69049938264543 0.5
E 14.523989352140209 6.544826374724202 29.87250424303843 0.5
P 15.824175030322355 5.841287700254489 33.08413163982243 0.5
P 13.654272562148815 3.140616282600784 29.478871985861435 0.5
A 25.082274584190568 27.2187099879507 24.703074536123786 2.5
E 27.204702465406832 28.498003001551297 25.032785431286033 0.5
E 22.959846702974303 25.939416974350102 24.37336364096154 0.5
E 24.225705806252304 29.026308663657996 23.203448930766662 0.5
E 25.938843362128832 25.411111312243403 26.20270014148091 0.5
P 26.08805279915515 26.058539132889226 22.730154423861574 0.5
P 24.076496369225985 28.378880843012173 26.675994648386 0.5
A 36.256742003357715 11.266897087363581 34.6990806719509 2.5
E 35.82722674576156 12.774903587818148 36.646240921668316 0.5
E 36.68625726095387 9.758890586909015 32.75192042223349 0.5
E 33.99326086604868 10.246187308483755 34.990293117334005 0.5
E 38.52022314066675 12.287606866243408 34.4078682265678 0.5
P 35.286087695924316 12.97980921058724 33.158378795021065 0.5
P 37.227396310791114 9.553984964139923 36.23978254888074 0.5
A 0.7112958268009378 12.308342874584472 24.58455896478637 2.5
E 2.8418434645783264 13.291327871816218 25.447407305098615 0.5
E -1.419251810976451 11.325357877352726 23.721710624474127 0.5
E 0.3456327359969661 11.172521313608677 26.78142033629967 0.5
E 1.0769589176049097 13.444164435560268 22.38769759327307 0.5
P -0.5445135803886946 14.306754713230578 25.408751209335065 0.5
P 1.9671052339905701 10.309931035938366 23.760366720237677 0.5
70
Properties=species:S:1:pos:R:3:radius:R:1
A 18.216201208297342 3.01204232194708 39.149761078505634 2.5
E 17.363259262018047 4.908007270577973 40.53821595708133 0.5
E 19.069143154576636 1.1160773733161873 37.76130619992994 0.5
E 16.627079888794974 3.6348625769697405 37.323073266689704 0.5
E 19.80532252779971 2.38922206692442 40.976448890321564 0.5
P 19.947438762239795 4.517835084413704 38.15708555834671 0.5
P 16.48496365435489 1.5062495594804566 40.14243659866456 0.5
A 29.13787282727405 26.972849409284287 23.39262069361308 2.5
E 28.887983562368547 24.672082162416494 22.44709151319309 0.5
E 29.387762092179557 29.27361665615208 24.338149874033068 0.5
E 29.353140251143937 26.00612395284107 25.688073117011434 0.5
E 28.922605403404166 27.939574865727504 21.097168270214723 0.5
P 31.616020379682045 26.824822494145984 23.097878872879697 0.5
P 26.65972527486606 27.12087632442259 23.68736251434646 0.5
A 2.4936953232776817 20.56416729762438 19.813372946414034 2.5
E 0.4651991861538094 19.49575297774365 20.810215091764306 0.5
E 4.5221914604015545 21.63258161750511 18.816530801063763 0.5
E 1.1109043019329254 21.416451352027817 17.912978018537945 0.5
E 3.876486344622438 19.711883243220942 21.713767874290124 0.5
P 2.0213687276247847 22.65751455302245 21.09587240269287 0.5
P 2.9660219189305788 18.470820042226308 18.5308734901352 0.5
A 5.870028653563078 35.7642464875936 3.9559941993193912 2.5
E 7.841071841460643 34.239870923848045 3.7528491966785977 0.5
E 3.898985465665513 37.28862205133916 4.159139201960185 0.5
E 4.628844052939659 33.992394143769694 5.20899063142162 0.5
E 7.111213254186497 37.53609883141751 2.7029977672171626 0.5
P 6.778020690211969 36.65127434078709 6.109765786336239 0.5
P 4.962036616914187 34.877218634400116 1.8022226123025433 0.5
A 19.729288733018755 5.279145863628302 25.114018820225326 2.5
E 20.115806617180137 4.368647208701046 27.410014491954676 0.5
E 19.342770848857374 6.189644518555558 22.818023148495975 0.5
E 20.223463477927154 3.0307035150868304 24.139186359347622 0.5
E 19.235113988110356 7.527588212169773 26.08885128110303 0.5
P 17.309289715101812 4.674580561397173 25.281665915696905 0.5
P 22.1492877509357 5.883711165859431 24.946371724753746 0.5
A 10.864632475764164 10.114835773971556 34.73061529354649 2.5
E 11.015239225825912 7.708551548728425 34.069469444144445 0.5
E 10.714025725702417 12.521119999214687 35.39176114294854 0.5
E 12.177575312167814 10.754506389793113 32.70157546850844 0.5
E 9.551689639360514 9.47516515815 36.75965511858455 0.5
P 8.742487637358494 10.339819619169797 33.42835435416927 0.5
P 12.986777314169835 9.889851928773316 36.03287623292371 0.5
A 14.848205071572588 4.50298968064513 30.230560797968447 2.5
E 17.302689667663813 4.958100170108855 30.09498864031777 0.5
E 12.393720475481363 4.047879191181405 30.366132955619126 0.5
E 15.289557965647374 2.5801066590052626 31.766050461880262 0.5
E 14.406852177497802 6.425872702284997 28.695071134056633 0.5
P 14.672953850630245 6.0344580373108165 32.198781233308196 0.5
P 15.02345629251493 2.9715213239794434 28.2623403626287 0.5
A 25.112439877434085 27.791489105953794 24.535955881060435 2.5
E 26.636414840005205 27.730173773458933 26.516799323500425 0.5
E 23.588464914862964 27.852804438448654 22.555112438620444 0.5
E 26.766696310647916 29.206846214011023 23.307053968846674 0.5
E 23.458183444220253 26.376131997896564 25.764857793274196 0.5
P 26.203740004176087 25.731633604547678 23.63259584945622 0.5
P 24.021139750692083 29.85134460735991 25.43931591266465 0.5
A 36.07468335582948 10.871320776476011 34.98071587535661 2.5
E 37.62350712267751 10.67258011211676 36.933059873625744 0.5
E 34.52585958898145 11.070061440835262 33.02837187708747 0.5
E 37.80156684729596 9.827881830170089 33.504535475732865 0.5
E 34.347799864363 11.914759722781934 36.45689627498035 0.5
P 35.14247182074315 8.60819521352931 35.48987630212794 0.5
P 37.00689489091581 13.134446339422713 34.47155544858528 0.5
A 0.3271671707156429 11.803863261276215 24.465395268161018 2.5
E -0.09278040034538698 14.255337344764424 24.212573482022496 0.5
E 0.7471147417766728 9.352389177788005 24.71821705429954 0.5
E 2.5656317071267507 12.290575012544416 25.466588651283345 0.5
E -1.911297365695465 11.317151510008014 23.46420188503869 0.5
P -0.703813215514101 11.86205681043565 26.74216775438938 0.5
P 1.358147556945387 11.74566971211678 22.188622781932654 0.5
70
Properties=species:S:1:pos:R:3:radius:R:1
A 17.7770924004386 3.0409153530347703 39.317899073275505 2.5
E 19.989553320529662 3.3860699439973976 40.42960271427323 0.5
E 15.56463148034754 2.695760762072143 38.20619543227778 0.5
E 16.720067206268247 2.636590600247823 41.54707363646549 0.5
E 18.834117594608955 3.4452401058217177 37.08872451008552 0.5
P 17.28953274669426 5.483739497876465 39.529785319689715 0.5
P 18.264652054182942 0.5980912081930749 39.106012826861296 0.5
A 29.177662265858824 27.46513890886529 22.40931621615572 2.5
E 29.76750878529777 25.779892314777694 24.15918049678496 0.5
E 28.587815746419878 29.150385502952883 20.65945193552648 0.5
E 31.602131297626403 27.988372752215795 22.09598530613757 0.5
E 26.753193234091246 26.94190506551478 22.722647126173868 0.5
P 29.332681611444805 25.694215346909836 20.651533880311693 0.5
P 29.022642920272844 29.23606247082074 24.167098551999747 0.5
A 2.3316107123742973 19.903678346944687 19.653223165880465 2.5
E 1.9669517215024004 18.095917759267667 21.34112881431496 0.5
E 2.696269703246194 21.711438934621707 17.96531751744597 0.5
E 2.0079136775895754 18.24708454848981 17.809065575924674 0.5
E 2.655307747159019 21.560272145399566 21.497380755836257 0.5
P -0.12037706289029604 20.391221826607385 19.64565313348148 0.5
P 4.783598487638891 19.41613486728199 19.66079319827945 0.5
A 5.010683060709985 36.268232870514765 3.4314697202468896 2.5
E 7.2604076833429465 36.49825538879819 2.365717045654213 0.5
E 2.760958438077023 36.03821035223134 4.497222394839566 0.5
E 5.746687011581087 37.75074434640482 5.305091322427094 0.5
E 4.274679109838883 34.78572139462471 1.5578481180666848 0.5
P 4.206296768794825 38.26804520294417 2.1650916848869297 0.5
P 5.8150693526251445 34.26842053808536 4.697847755606849 0.5
A 20.092990244034333 5.076537558340208 25.064460789493904 2.5
E 21.351055831776048 6.009452437114929 27.01303483373797 0.5
E 18.834924656292618 4.143622679565487 23.11588674524984 0.5
E 21.699099297320927 3.16456606889648 24.942892979173887 0.5
E 18.486881190747738 6.988509047783936 25.18602859981392 0.5
P 18.648108004579587 3.763512481460137 26.625960216837107 0.5
P 21.53787248348908 6.389562635220279 23.5029613621507 0.5
A 11.89450701674048 10.985473365391995 34.47512546457938 2.5
E 10.724334276957617 11.152539628007737 32.272221784668645 0.5
E 13.064679756523343 10.818407102776252 36.67802914449011 0.5
E 10.95018579591971 13.201281852876978 35.14478969290328 0.5
E 12.83882823756125 8.769664877907012 33.805461236255475 0.5
P 9.897270628383758 9.839924758529465 35.449171253204675 0.5
P 13.891743405097202 12.131021972254524 33.50107967595408 0.5
A 14.925704403324012 4.994084919880933 29.717224531865394 2.5
E 17.34787266204423 4.379631005482916 29.791704821394088 0.5
E 12.503536144603792 5.60853883427895 29.6427442423367 0.5
E 14.685073813458304 4.336425199318629 32.11713715760198 0.5
E 15.16633499318972 5.651744640443237 27.31731190612881 0.5
P 15.495965611603346 7.326450688586592 30.41355209508613 0.5
P 14.355443195044678 2.661719151175275 29.02089696864466 0.5
A 25.28433421533221 28.032998523846995 24.625773900985838 2.5
E 24.849910364855933 29.80345266064564 26.336553859843757 0.5
E 25.718758065808483 26.26254438704835 22.914993942127918 0.5
E 27.35022698793364 29.24008376043856 23.901182786138417 0.5
E 23.218441442730775 26.825913287255432 25.35036501583326 0.5
P 26.62349924259752 26.745195207693776 26.29855590969296 0.5
P 23.945169188066895 29.320801840000215 22.952991892278714 0.5
A 36.03912144759795 10.727920546623883 35.205541707307944 2.5
E 37.42981004730702 12.145538669786282 33.686876479049424 0.5
E 34.64843284788888 9.310302423461485 36.724206935566464 0.5
E 34.514912728395934 12.665950203330713 35.618856151810085 0.5
E 37.563330166799965 8.789890889917054 34.7922272628058 0.5
P 34.627465328371834 10.031932108065392 33.26316504598678 0.5
P 37.450777566824065 11.423908985182374 37.14791836862911 0.5
A 40.08238885018375 11.404255498081207 24.004738689623675 2.5
E 37.587744598735014 11.365992929605525 23.8457228584359 0.5
E 42.57703310163248 11.44251806655689 24.16375452081145 0.5
E 39.974253830838656 13.613683371138976 25.169528495274285 0.5
E 40.19052386952884 9.19482762502344 22.839948883973065 0.5
P 39.95968238618966 10.235082948963674 26.211088316062103 0.5
P 40.20509531417783 12.57342804719874 21.798389063185247 0.5
70
Properties=species:S:1:pos:R:3:radius:R:1
A 17.94492876588713 3.1241238281646346 39.66755642513013 2.5
E 17.648136689764172 2.1979230501346714 37.36450050259425 0.5
E 18.24172084201009 4.050324606194597 41.97061234766601 0.5
E 20.422527820239775 3.1565832003930856 39.33521726850592 0.5
E 15.467329711534484 3.0916644559361837 39.99989558175434 0.5
P 17.791901351932058 5.445997749791626 38.753508230204396 0.5
P 18.097956179842203 0.8022499065376434 40.58160462005586 0.5
A 29.156608690077967 27.904344627899633 21.80898180869098 2.5
E 31.16573915372088 26.945201443941812 22.946276463883436 0.5
E 27.14747822643505 28.863487811857453 20.671687153498524 0.5
E 29.520160513801276 30.07402610489922 22.99654753732768 0.5
E 28.793056866354657 25.734663150900044 20.62141608005428 0.5
P 30.59925377863216 28.693348202690146 19.92583324645848 0.5
P 27.713963601523773 27.11534105310912 23.69213037092348 0.5
A 2.5141864750810257 19.202365072794322 19.044874425841595 2.5
E 4.290855526686195 17.466197847118327 18.763501993723278 0.5
E 0.7375174234758564 20.938532298470317 19.326246857959912 0.5
E 3.263115132544798 20.31102514803335 16.933008259722214 0.5
E 1.7652578176172535 18.093704997555292 21.156740591960975 0.5
P 0.9227867933237452 17.78582132053717 17.73687945228729 0.5
P 4.1055861568383065 20.618908825051474 20.3528693993959 0.5
A 3.8260475898315383 36.915952435199685 2.967582385322876 2.5
E 6.12212431059746 36.35570524983717 2.1526254639766815 0.5
E 1.5299708690656169 37.4761996205622 3.7825393066690705 0.5
E 2.8374427078221887 35.56087294880364 1.1138240481020296 0.5
E 4.814652471840888 38.27103192159573 4.821340722543722 0.5
P 3.8523549960885073 34.89113573316419 4.433674211755999 0.5
P 3.799740183574569 38.94076913723518 1.5014905588897527 0.5
A 20.15832803549518 4.921754230830569 24.680518640087477 2.5
E 17.767400527065583 5.3420631788568445 24.083186205304035 0.5
E 22.54925554392478 4.501445282804293 25.27785107487092 0.5
E 20.418999421386644 7.322727938274333 25.326564834056455 0.5
E 19.897656649603718 2.520780523386804 24.0344724461185 0.5
P 19.476040648822458 4.366177373525096 27.020565280138594 0.5
P 20.840615422167904 5.477331088136042 22.34047200003636 0.5
A 12.640354185792216 11.257393112553151 33.98608505333608 2.5
E 10.377577924375156 12.32033330027495 33.984762898799296 0.5
E 14.903130447209275 10.194452924831353 33.98740720787287 0.5
E 12.169857697799813 10.258594960236737 36.229082000662444 0.5
E 13.110850673784618 12.256191264869566 31.743088106009726 0.5
P 11.687213773495326 9.226984186190164 32.882018503624856 0.5
P 13.593494598089105 13.287802038916139 35.09015160304731 0.5
A 14.704717720838405 5.465030096667264 29.139964987848323 2.5
E 16.881019128705603 5.315659135863424 30.361194081091153 0.5
E 12.528416312971206 5.614401057471104 27.918735894605494 0.5
E 13.63414358274336 6.457965399789414 31.169238379645172 0.5
E 15.77529185893345 4.472094793545114 27.110691596051474 0.5
P 15.311004119297266 7.75452082603945 28.339559463653544 0.5
P 14.098431322379543 3.175539367295079 29.940370512043103 0.5
A 26.07931539279557 28.21528926604179 25.114899150337877 2.5
E 23.61500173138927 28.459347800430436 24.7719799032866 0.5
E 28.543629054201872 27.971230731653144 25.457818397389154 0.5
E 25.943512479005136 29.68213304868789 27.134782039497146 0.5
E 26.215118306586007 26.748445483395688 23.095016261178607 0.5
P 25.68092394357486 26.20561149358561 26.5475468753852 0.5
P 26.477706842016282 30.22496703849797 23.682251425290552 0.5
A 35.801293573539716 11.090690898249049 35.53509951694631 2.5
E 35.556657932220546 13.20754171170408 36.84242351526198 0.5
E 36.04592921485889 8.973840084794018 34.227775518630644 0.5
E 38.22435882459778 10.995236570277699 36.1430824611046 0.5
E 33.378228322481654 11.186145226220399 34.92711657278802 0.5
P 35.23657400409644 9.764104638389842 37.57746596375293 0.5
P 36.36601314298299 12.417277158108256 33.49273307013969 0.5
A 39.863867580169604 11.420793036448947 23.683048078222182 2.5
E 38.32716714482748 13.259179651065878 22.969685318318373 0.5
E 41.40056801551173 9.582406421832015 24.39641083812599 0.5
E 39.41984880863726 11.979378160808741 26.0790509975384 0.5
E 40.307886351701946 10.862207912089152 21.287045158905965 0.5
P 37.94256617160634 9.821318962247613 23.69988801324443 0.5
P 41.78516898873287 13.02026711065028 23.666208143199935 0.5
70
Properties=species:S:1:pos:R:3:radius:R:1
A 17.81608077945339 3.7095667968372816 39.91262203258996 2.5
E 16.86695081027181 3.2500055784301263 42.1793279659077 0.5
E 18.76521074863497 4.169128015244437 37.64591609927221 0.5
E 19.354365892292368 1.754495712131279 40.1603637637634 0.5
E 16.277795666614413 5.6646378815432845 39.66488030141652 0.5
P 16.088993285080363 2.2207751592052807 38.88760093695452 0.5
P 19.543168273826417 5.198358434469283 40.937643128225396 0.5
A 29.05327366114719 28.531620370923505 21.270508989730406 2.5
E 29.585328037529656 26.561483531382 22.714627743176166 0.5
E 28.521219284764726 30.501757210465012 19.826390236284645 0.5
E 26.681812204893248 28.469423101985704 22.05937023306707 0.5
E 31.424735117401134 28.593817639861307 20.48164774639374 0.5
P 29.63901140286635 30.069375986493856 23.15258735279281 0.5
P 28.467535919428034 26.993864755353155 19.388430626668 0.5
A 2.424874455205261 18.62209127524719 18.633576528792922 2.5
E 4.139239072382282 20.412851048073886 18.310879464355896 0.5
E 0.71050983802824 16.831331502420493 18.956273593229948 0.5
E 0.9225188677438414 20.265257075559823 19.77064901615048 0.5
E 3.9272300426666806 16.978925474934556 17.496504041435365 0.5
P 1.3982870754883443 19.20791171591799 16.430639225305296 0.5
P 3.4514618349221777 18.03627083457639 20.83651383228055 0.5
A 3.2267328766580716 37.37286402432425 2.8697626995299625 2.5
E 4.451838840527692 36.56594374668298 0.8454121758255622 0.5
E 2.001626912788451 38.17978430196552 4.894113223234363 0.5
E 3.1145927277617234 35.03029238509334 3.735662637211199 0.5
E 3.33887302555442 39.71543566355516 2.003862761848726 0.5
P 5.403092213784284 37.70638730777266 4.053917357968294 0.5
P 1.05037353953186 37.03934074087584 1.6856080410916308 0.5
A 20.157061841581466 5.037706693010289 24.31528250678976 2.5
E 22.493484520603342 5.866903048438536 24.63709373887665 0.5
E 17.82063916255959 4.208510337582043 23.99347127470287 0.5
E 21.027979424297346 3.088665467131335 23.01422875542469 0.5
E 19.286144258865587 6.986747918889243 25.61633625815483 0.5
P 20.337704109805426 3.7096736723480346 26.4256608299731 0.5
P 19.976419573357507 6.365739713672544 22.20490418360642 0.5
A 13.2536408154504 11.70964514104763 33.86122672616937 2.5
E 10.894709641524933 10.908476356498163 34.06996650518966 0.5
E 15.612571989375866 12.510813925597098 33.65248694714908 0.5
E 14.080922914088125 9.40402006210215 34.36092395911198 0.5
E 12.426358716812674 14.015270219993111 33.36152949322676 0.5
P 13.221267277561054 11.169069915939723 31.42058533914764 0.5
P 13.286014353339745 12.250220366155538 36.3018681131911 0.5
A 14.449340401625426 5.448646207085024 28.8558132532608 2.5
E 16.20870305392776 4.251987051301351 30.16831084280584 0.5
E 12.689977749323093 6.645305362868696 27.543315663715756 0.5
E 14.78890241086377 7.488599135772431 30.260551552952393 0.5
E 14.109778392387081 3.4086932783976165 27.451074953569204 0.5
P 16.192710901423006 6.258954119928975 27.257670460261135 0.5
P 12.705969901827846 4.6383382942410725 30.453956046260462 0.5
A 26.707189679148783 28.16391351783319 25.152433982780348 2.5
E 24.629119772271004 29.383619983117924 24.48614455567566 0.5
E 28.785259586026562 26.944207052548457 25.818723409885035 0.5
E 25.427959124999894 26.9538626779615 26.927073707980263 0.5
E 27.98642023329767 29.37396435770488 23.377794257580433 0.5
P 26.163871492944054 26.34784823721459 23.522491577334446 0.5
P 27.250507865353512 29.979978798451793 26.78237638822625 0.5
A 35.66450841864276 11.480969786186815 35.765638493256986 2.5
E 37.86470739801782 11.388069698849089 34.58221379141468 0.5
E 33.4643094392677 11.573869873524542 36.94906319509929 0.5
E 34.702842868944536 12.80264147233369 33.87397696841639 0.5
E 36.626173968340986 10.15929810003994 37.65730001809758 0.5
P 34.968574641849656 9.360933577106582 34.63819774070802 0.5
P 36.360442195435866 13.601005995267048 36.89307924580595 0.5
A 40.0728991677558 11.52023818654553 23.23721185057795 2.5
E 37.670869120233725 12.188190517663894 23.05257346303238 0.5
E 42.474929215277875 10.852285855427166 23.42185023812352 0.5
E 39.75467038542556 11.048789551117594 25.67164538350723 0.5
E 40.39112795008604 11.991686821973467 20.80277831764867 0.5
P 39.4572839527891 9.15770228893308 22.699213672518933 0.5
P 40.6885143827225 13.88277408415798 23.775210028636966 0.5
70
Properties=species:S:1:pos:R:3:radius:R:1
A 17.767296324073598 4.197061558838178 39.81305949940356 2.5
E 18.069404810265734 6.669805893173637 40.02345417515092 0.5
E 17.465187837881462 1.7243172245027192 39.6026648236562 0.5
E 19.302401353462585 3.8443246378576896 41.75445827691479 0.5
E 16.23219129468461 4.549798479818667 37.871660721892326 0.5
P 15.817377604917441 4.302475607187275 41.374054331904716 0.5
P 19.717215043229757 4.091647510489081 38.2520646669024 0.5
A 29.197345236264407 29.029510327786767 20.58917475074863 2.5
E 28.767619360883362 27.600881263045377 22.59525417774156 0.5
E 29.627071111645453 30.458139392528157 18.5830953237557 0.5
E 29.13360997750513 27.000254637777715 19.13038787071546 0.5
E 29.261080495023684 31.05876601779582 22.0479616307818 0.5
P 26.735379865098714 29.33140491194184 20.276786896889117 0.5
P 31.6593106074301 28.727615743631695 20.90156260460814 0.5
A 2.49010336440236 18.17033059968093 18.301325752060627 2.5
E 2.450009185863175 18.57731773516282 20.76764972275032 0.5
E 2.5301975429415444 17.763343464199043 15.835001781370934 0.5
E 4.791285168199632 17.213048137773356 18.496703831679515 0.5
E 0.1889215606050878 19.127613061588505 18.10594767244174 0.5
P 1.5139093454088723 15.897013252789943 18.660593726704793 0.5
P 3.4662973833958475 20.443647946571918 17.942057777416462 0.5
A 2.8204669738220858 37.4369686060969 2.7278760347411124 2.5
E 1.17677699791903 39.205045455199866 3.377635620112233 0.5
E 4.464156949725142 35.66889175699393 2.078116449369992 0.5
E 2.4780997611194926 38.004544460188 0.31734863570190264 0.5
E 3.162834186524679 36.869392752005794 5.138403433780322 0.5
P 4.672781189818333 39.11081504634122 2.8589109144462315 0.5
P 0.9681527578258387 35.76312216585257 2.5968411550359933 0.5
A 19.845574991287346 5.224563640007753 23.69813501712897 2.5
E 17.76131969870793 3.867353976986977 23.445426081873105 0.5
E 21.929830283866764 6.5817733030285295 23.950843952384833 0.5
E 18.482817259142514 7.320420844464964 23.68158382367626 0.5
E 21.20833272343218 3.1287064355505425 23.71468621058168 0.5
P 19.62473287837725 5.100609982827878 26.18527479045044 0.5
P 20.06641710419744 5.3485172971876285 21.2109952438075 0.5
A 13.629174692130345 11.890889613105044 34.451241821410584 2.5
E 12.798159216422984 9.533234754929033 34.4216301876638 0.5
E 14.460190167837705 14.248544471281054 34.480853455157366 0.5
E 15.981063306501886 11.059807834055333 34.618343652999314 0.5
E 11.277286077758804 12.721971392154755 34.28413998982185 0.5
P 13.796605945854402 11.863201235582126 31.95700844639818 0.5
P 13.461743438406288 11.918577990627961 36.94547519642299 0.5
A 14.16110254439336 5.412672759040036 28.73143540592654 2.5
E 14.47506969501614 2.932540061675075 28.71229299777376 0.5
E 13.84713539377058 7.8928054564049965 28.75057781407932 0.5
E 15.819973152530553 5.608317372099481 30.591508385902927 0.5
E 12.502231936256168 5.217028145980591 26.871362425950153 0.5
P 16.0048956276289 5.658975395730948 27.0611773188721 0.5
P 12.31730946115782 5.166370122349123 30.40169349298098 0.5
A 27.084489809142273 28.37894430564562 25.37191323681896 2.5
E 24.967748282929584 29.54169185047089 26.01799640345422 0.5
E 29.20123133535496 27.216196760820353 24.725830070183697 0.5
E 25.93246060434014 27.383529895197455 23.38899143736368 0.5
E 28.236519013944406 29.374358716093788 27.35483503627424 0.5
P 27.74949659293444 30.35560014277934 23.993291577684207 0.5
P 26.419483025350104 26.4022884685119 26.75053489595371 0.5
A 35.335292957048466 11.722064802630772 35.720754482624066 2.5
E 36.372924815396956 11.54574568192508 33.45310554722539 0.5
E 34.297661098699976 11.898383923336464 37.98840341802274 0.5
E 37.15498916856124 13.28175616089061 36.432139445057615 0.5
E 33.515596745535696 10.162373444370933 35.00936952019052 0.5
P 33.97073228622901 13.66789995357344 34.94506141122946 0.5
P 36.699853627867924 9.776229651688105 36.49644755401867 0.5
A 39.826637302924 11.943122492138565 22.70001376752202 2.5
E 37.727938347612444 10.688236947852657 22.179701394310204 0.5
E 41.92533625823555 13.198008036424474 23.220326140733835 0.5
E 40.890384910015115 9.829516539470209 23.5069282024243 0.5
E 38.76288969583288 14.056728444806922 21.893099332619737 0.5
P 40.67156553856474 11.487126716294092 20.391732127637088 0.5
P 38.981709067283255 12.399118267983038 25.00829540740695 0.5
70
Properties=species:S:1:pos:R:3:radius:R:1
A 17.44491976259597 4.581044371341856 39.657518504592446 2.5
E 18.61622129749341 5.563914187525098 37.67963588957631 0.5
E 16.273618227698528 3.5981745551586144 41.63540111960858 0.5
E 19.199481440008608 2.8071528389695146 39.81506897756189 0.5
E 15.69035808518333 6.354935903714198 39.499968031623 0.5
P 18.78639880995455 6.042986831158203 41.17842553978043 0.5
P 16.103440715237387 3.1191019115255103 38.136611469404464 0.5
A 29.315211205322953 29.61392225394125 20.171364874963274 2.5
E 27.352394221581342 31.142696480537506 19.926010330618343 0.5
E 31.278028189064564 28.085148027344996 20.416719419308205 0.5
E 29.130231061467587 29.775707751545177 22.65925711522299 0.5
E 29.50019134917832 29.452136756337325 17.68347263470356 0.5
P 27.777963068321338 27.64245710921759 20.18526985338804 0.5
P 30.85245934232457 31.58538739866491 20.15745989653851 0.5
A 2.855774310777832 17.851807672828404 18.164658538932546 2.5
E 4.18488062273284 19.034474303565013 19.92101159343564 0.5
E 1.526667998822824 16.669141042091795 16.40830548442945 0.5
E 0.7409509026979229 18.695963895157956 19.196609228131624 0.5
E 4.970597718857741 17.00765145049885 17.132707849733467 0.5
P 2.9606473967318045 19.88618716369123 16.71541676372798 0.5
P 2.75090122482386 15.817428181965578 19.613900314137112 0.5
A 2.8864474546058325 36.98787824020911 1.9419931663467311 2.5
E 4.153633369235849 35.12899702124417 3.0323144362220207 0.5
E 1.6192615399758161 38.84675945917406 0.8516718964714414 0.5
E 0.7325722105501602 35.93719271347418 2.6539491740843166 0.5
E 5.040322698661505 38.038563766944044 1.2300371586091456 0.5
P 2.957590204111211 38.28811688664634 4.076078022087869 0.5
P 2.815304705100454 35.687639593771884 -0.1920916893944069 0.5
A 19.984378993769784 5.441425104120164 23.20571964893946 2.5
E 21.884189530454048 3.9415645219728357 22.580309256617205 0.5
E 18.08456845708552 6.941285686267491 23.831130041261716 0.5
E 18.456976370967883 3.4648262320973617 23.306209086078937 0.5
E 21.511781616571685 7.418023976142965 23.105230211799984 0.5
P 20.53914124245103 5.135688071297165 25.624141389289818 0.5
P 19.429616745088538 5.747162136943163 20.787297908589103 0.5
A 14.144032969222437 12.101794079077488 34.871964267347934 2.5
E 15.318977834757666 13.366717750383062 33.06379594865568 0.5
E 12.969088103687207 10.836870407771913 36.68013258604019 0.5
E 16.0232731896761 12.6020146019278 36.44302620831264 0.5
E 12.264792748768773 11.601573556227175 33.30090232638323 0.5
P 12.987330433225901 14.199351595401971 35.58770982893319 0.5
P 15.300735505218972 10.004236562753004 34.156218705762676 0.5
A 13.65858539903417 5.268040790656581 28.596756464088962 2.5
E 14.32394348010287 5.648265360102822 26.217107771373097 0.5
E 12.99322731796547 4.887816221210341 30.976405156804827 0.5
E 15.581056421190576 3.6957383297355384 28.883060743394843 0.5
E 11.736114376877763 6.8403432515776235 28.31045218478308 0.5
P 15.111652428776365 7.174160998872574 29.307602410061182 0.5
P 12.205518369291974 3.3619205824405887 27.88591051811674 0.5
A 27.391563430404478 28.570378603480886 25.72628232431229 2.5
E 25.872944201121786 26.705563026621746 25.043451085457303 0.5
E 28.91018265968717 30.435194180340027 26.409113563167278 0.5
E 29.254185464826037 27.531019328469966 24.422299404816812 0.5
E 25.52894139598292 29.609737878491806 27.03026524380777 0.5
P 26.70277115885955 29.871222622474775 23.70554729841016 0.5
P 28.080355701949404 27.269534584486998 27.74701735021442 0.5
A 34.52164740152067 12.145618646136644 35.88595998006356 2.5
E 34.39941805692794 14.35132186426211 37.056401478333505 0.5
E 34.64387674611339 9.939915428011178 34.715518481793616 0.5
E 36.2683976659227 11.383752410227979 37.50411428432345 0.5
E 32.774897137118636 12.907484882045308 34.26780567580367 0.5
P 32.737292195533676 11.248716671484827 37.389836087571695 0.5
P 36.30600260750766 13.04252062078846 34.38208387255543 0.5
A 39.93296493876367 12.668849309343486 21.527219841062713 2.5
E 38.956079120843256 10.792133491527624 20.195442142681056 0.5
E 40.90985075668408 14.545565127159348 22.85899753944437 0.5
E 39.99949532976951 14.092018126554944 19.472916011345553 0.5
E 39.86643454775783 11.245680492132028 23.581523670779873 0.5
P 37.632689345314134 13.507018896526006 22.033385759812393 0.5
P 42.2332405322132 11.830679722160966 21.021053922313033 0.5
70
Properties=species:S:1:pos:R:3:radius:R:1
A 17.008816208893975 4.836939205340107 39.6976017027565 2.5
E 17.77199266974219 5.970798974562319 37.604297206667425 0.5
E 16.24563974804576 3.7030794361178945 41.790906198845576 0.5
E 18.442869811689736 2.8633247156412933 39.151400173685424 0.5
E 15.574762606098215 6.81055369503892 40.24380323182758 0.5
P 18.909093018707715 5.870964287139591 40.95049442613463 0.5
P 15.108539399080236 3.8029141235406225 38.44470897937837 0.5
A 29.212905065948643 29.918077565650734 19.78115511922628 2.5
E 31.189844282998525 30.81393429662402 18.540529450597614 0.5
E 27.23596584889876 29.022220834677448 21.021780787854947 0.5
E 27.8677299611713 29.96919035368091 17.67452477187359 0.5
E 30.558080170725987 29.866964777620556 21.887785466578972 0.5
P 29.942435921757863 27.584662000332393 19.258702700385456 0.5
P 28.483374210139424 32.251493130969074 20.303607538067105 0.5
A 3.189778102085233 17.989280367832123 17.95608481084541 2.5
E 2.4220827836591234 17.729187258697873 20.321036284479984 0.5
E 3.957473420511343 18.249373476966372 15.591133337210838 0.5
E 5.124522615830985 16.474750484139193 18.417563843880075 0.5
E 1.255033588339481 19.503810251525053 17.494605777810747 0.5
P 1.8050732365647257 16.017339494991162 17.289720323930123 0.5
P 4.574482967605741 19.961221240673083 18.6224492977607 0.5
A 2.9101289485316273 37.16121841422825 0.6157894084457651 2.5
E 3.8838883011718845 39.21164386566536 1.663428750607123 0.5
E 1.93636959589137 35.110792962791145 -0.43184993371559277 0.5
E 1.1584787680841497 38.55916254903551 -0.492124776541512 0.5
E 4.661779128979105 35.76327427942099 1.7237035934330422 0.5
P 4.4046236352012285 37.46372075150292 -1.3653663066507078 0.5
P 1.4156342618620261 36.858716076953584 2.596945123542238 0.5
A 20.70115953035434 5.705491295094787 22.664913394460488 2.5
E 19.2134949136771 7.498893563571756 23.570762328725333 0.5
E 22.18882414703158 3.912089026617818 21.759064460195642 0.5
E 22.191707111111896 7.446400996872269 21.666163515984714 0.5
E 19.21061194959678 3.9645815933173054 23.66366327293626 0.5
P 22.048424128636686 5.759728862142315 24.770129865167576 0.5
P 19.35389493207199 5.6512537280472595 20.5596969237534 0.5
A 14.067202086970406 12.520054549682568 35.21242145735373 2.5
E 14.661413771995644 10.836025094783581 36.9619806213751 0.5
E 13.472990401945168 14.204084004581555 33.46286229333236 0.5
E 15.251997521877147 11.148861103284874 33.49018793370508 0.5
E 12.882406652063665 13.891247996080262 36.934654981002375 0.5
P 11.947491670238279 11.28155815179208 34.74024096050039 0.5
P 16.186912503702533 13.758550947573056 35.68460195420707 0.5
A 12.596111093344037 5.597853639184778 28.73780233837015 2.5
E 13.332030627307612 6.654141439367065 30.88085588943122 0.5
E 11.860191559380462 4.541565839002491 26.594748787309083 0.5
E 13.03625703375112 3.3338862034850165 29.702542200318838 0.5
E 12.155965152936954 7.8618210748845385 27.773062476421465 0.5
P 10.247772533708192 5.504539474795505 29.590209797306507 0.5
P 14.944449652979882 5.69116780357405 27.885394879433797 0.5
A 27.922792582082472 29.0363797065805 26.11324778070246 2.5
E 29.022269728677518 29.26609759545158 28.346715867702493 0.5
E 26.823315435487427 28.806661817709422 23.879779693702424 0.5
E 26.163437403952187 30.66957212635079 26.811353701885473 0.5
E 29.682147760212757 27.403187286810212 25.415141859519444 0.5
P 29.317718874508397 30.915185766698798 25.233322541172768 0.5
P 26.527866289656547 27.157573646462204 26.99317302023215 0.5
A 34.421578718024534 12.022668689889734 35.96001399134926 2.5
E 34.0112860990759 11.006228579883032 38.20690283363918 0.5
E 34.831871336973165 13.039108799896436 33.71312514905934 0.5
E 35.93050982172418 13.720822662096632 37.003757260054165 0.5
E 32.91264761432489 10.324514717682836 34.91627072264435 0.5
P 36.37216501222563 10.495212441924314 35.6252147687884 0.5
P 32.47099242382344 13.550124937855154 36.29481321391011 0.5
A 40.193095443711414 13.140434791941635 20.770457750018366 2.5
E 38.358785853795276 11.498084810581652 21.204041498641153 0.5
E 42.02740503362755 14.782784773301618 20.33687400139558 0.5
E 38.619110399296865 15.02377896061342 21.245416508533832 0.5
E 41.76708048812596 11.25709062326985 20.2954989915029 0.5
P 40.83174981682904 13.064927964051195 23.186325981243094 0.5
P 39.55444107059379 13.215941619832074 18.354589518793638 0.5
70
Properties=species:S:1:pos:R:3:radius:R:1
A 16.435732199994828 5.495354073872875 40.29578820138471 2.5
E 17.362150916663204 6.071470660618085 38.0463798258593 0.5
E 15.509313483326453 4.919237487127664 42.54519657691012 0.5
E 18.41460895257106 4.032422392216378 40.736103648444356 0.5
E 14.456855447418594 6.958285755529372 39.85547275432506 0.5
P 17.65055529803016 7.439041438981536 41.29392860593564 0.5
P 15.220909101959496 3.5516667087642135 39.29764779683378 0.5
A 28.565435927597246 30.163600434889638 19.465620762680164 2.5
E 28.40926955203144 32.153277308904705 17.960031841309974 0.5
E 28.721602303163053 28.17392356087457 20.971209684050354 0.5
E 30.880661793683505 29.716736960952534 18.634932960514764 0.5
E 26.250210061510987 30.61046390882674 20.296308564845564 0.5
P 29.49567312968506 31.60980200198562 21.28032728859044 0.5
P 27.635198725509433 28.717398867793655 17.65091423676989 0.5
A 3.029666220008007 18.08512772276438 18.46591926769982 2.5
E 1.037161988327274 16.810914835569783 19.276047902449058 0.5
E 5.022170451688741 19.359340609958977 17.655790632950584 0.5
E 4.079375725407348 17.880362707446487 20.725605361557818 0.5
E 1.979956714608666 18.289892738082273 16.206233173841824 0.5
P 4.115040275809843 15.943994189654369 17.767699852055138 0.5
P 1.944292164206171 20.22626125587439 19.164138683344504 0.5
A 3.212066028127264 37.538002742063995 39.58727175390076 2.5
E 3.679891016998776 36.097165014101066 37.59852178935878 0.5
E 2.744241039255752 38.978840470026924 41.57602171844274 0.5
E 3.9261430186917194 35.68076906780452 41.100803098387146 0.5
E 2.497989037562809 39.39523641632347 38.07374040941437 0.5
P 5.5617966150953775 38.38927809168655 39.52326825562746 0.5
P 0.8623354411591508 36.68672739244144 39.65127525217406 0.5
A 21.292893347958124 5.868113484537169 22.401893506673623 2.5
E 21.674286471638762 3.3973782951689637 22.399264965724868 0.5
E 20.911500224277486 8.338848673905375 22.40452204762238 0.5
E 19.4604512872089 5.587034355752743 20.724648558146527 0.5
E 23.125335408707347 6.149192613321595 24.07913845520072 0.5
P 19.63557763295178 5.610310948901495 24.255765798233522 0.5
P 22.95020906296447 6.125916020172842 20.548021215113724 0.5
A 13.92370479293205 12.827278894921287 35.27957926345539 2.5
E 13.132583650473311 14.018616759165692 33.22900826220447 0.5
E 14.714825935390788 11.635941030676882 37.33015026470631 0.5
E 15.641496144673331 14.60548611123 35.649946605089795 0.5
E 12.205913441190768 11.049071678612574 34.90921192182098 0.5
P 12.288675677033343 14.119057973976236 36.66087814533371 0.5
P 15.558733908830757 11.535499815866338 33.89828038157707 0.5
A 12.06766557418598 5.967407045202229 28.66537755416861 2.5
E 9.895507516963088 4.75731719291662 28.92501561731712 0.5
E 14.239823631408873 7.177496897487838 28.405739491020103 0.5
E 13.062672146101548 3.9480469816938206 27.578111783645785 0.5
E 11.072659002270413 7.986767108710637 29.752643324691437 0.5
P 11.331668769651513 6.8087556550549815 26.429210918961758 0.5
P 12.803662378720448 5.126058435349477 30.901544189375464 0.5
A 28.433105204664322 29.30700302279183 26.79821717992457 2.5
E 26.628951838206458 28.541442490475127 28.35029569007078 0.5
E 30.237258571122187 30.07256355510853 25.24613866977836 0.5
E 28.20810993922012 27.18770074168944 25.491337318635914 0.5
E 28.658100470108526 31.426305303894218 28.105097041213227 0.5
P 26.717177536950324 30.389811829864033 25.337697640000364 0.5
P 30.14903287237832 28.224194215719624 28.258736719848777 0.5
A 34.60561092745109 11.494879171099752 35.73678011317383 2.5
E 35.51142395341268 9.185672241324966 36.04833447035669 0.5
E 33.6997979014895 13.804086100874539 35.425225755990965 0.5
E 33.102392058958316 11.1711724521689 37.707959200301005 0.5
E 36.10882979594386 11.818585890030604 33.76560102604665 0.5
P 36.386014195086496 12.396420803860185 37.24256458944991 0.5
P 32.82520765981568 10.59333753833932 34.230995636897745 0.5
A 0.13619438054007937 13.782364047984904 20.09961228823001 2.5
E -1.185052298139544 13.350312507438705 22.177505134454556 0.5
E 1.4574410592197027 14.214415588531104 18.021719442005462 0.5
E -1.7812720692830732 15.074558945709194 19.149057313439318 0.5
E 2.053660830363232 12.490169150260614 21.0501672630207 0.5
P 1.0459358976107715 15.878447016907746 21.113913308396583 0.5
P -0.7735471365306128 11.686281079062063 19.085311268063435 0.5
70
Properties=species:S:1:pos:R:3:radius:R:1
A 16.003630670663874 6.346749014739404 0.3219529923996128 2.5
E 17.860929082905347 7.154129620478735 -1.1438502567991662 0.5
E 14.1463322584224 5.539368409000073 1.7877562415983916 0.5
E 17.470366985978533 4.507084002762738 1.1671258889400067 0.5
E 14.536894355349215 8.18641402671607 -0.523219904140781 0.5
P 16.809314969395633 7.834623068947385 2.162361536607184 0.5
P 15.197946371932117 4.858874960531423 -1.5184555518079588 0.5
A 28.066924427752866 30.14015843659327 18.980891402321216 2.5
E 27.847654011927563 28.823418598691724 16.867099387002064 0.5
E 28.28619484357817 31.45689827449482 21.09468341764037 0.5
E 30.343629742876065 30.89410066884711 18.275069882024418 0.5
E 25.790219112629668 29.386216204339433 19.686712922618014 0.5
P 27.057700273843647 32.12705735443165 17.847886857997093 0.5
P 29.076148581662085 28.153259518754894 20.11389594664534 0.5
A 2.906908648123952 17.829576199402894 18.7272219152389 2.5
E 0.6046441838929755 16.862708361600216 18.848650581381115 0.5
E 5.209173112354929 18.79644403720557 18.605793249096685 0.5
E 3.6378771019059615 16.322064214946185 20.58277917285559 0.5
E 2.1759401943419423 19.337088183859603 16.87166465762221 0.5
P 3.5513180337739727 16.08527857544613 17.056245451387902 0.5
P 2.262499262473931 19.57387382335966 20.398198379089898 0.5
A 3.7319444156151063 37.84809467535822 39.086235192916426 2.5
E 1.8001853988226446 36.67225268697473 38.020541653762145 0.5
E 5.6637034324075675 39.02393666374171 40.15192873207071 0.5
E 5.307853792214614 36.62407278963951 37.58015416587068 0.5
E 2.1560350390155985 39.072116561076925 40.59231621996217 0.5
P 3.545351977969407 39.683623493338416 37.39922090116385 0.5
P 3.9185368532608056 36.01256585737802 40.773249484669 0.5
A 22.1347741764848 6.4069109324502405 22.274858346960578 2.5
E 24.624182166955 6.188933048113227 22.347889155006857 0.5
E 19.645366186014602 6.624888816787254 22.201827538914298 0.5
E 21.91076973931975 3.9283479352070976 22.512655489139068 0.5
E 22.35877861364985 8.885473929693383 22.037061204782088 0.5
P 22.083103400273274 6.650244264811116 24.762451364366893 0.5
P 22.186444952696327 6.163577600089365 19.787265329554263 0.5
A 13.901738898100705 13.712329006760479 35.108628233206105 2.5
E 13.844053000222718 15.96190359827957 34.0195522512946 0.5
E 13.959424795978691 11.462754415241388 36.19770421511761 0.5
E 15.941201664377719 14.38440338601482 36.38882652008138 0.5
E 11.862276131823691 13.040254627506137 33.82842994633083 0.5
P 12.457002256994613 14.571241217606497 36.95930536655592 0.5
P 15.346475539206796 12.85341679591446 33.25795109985629 0.5
A 11.812656484064789 6.44397429534182 28.368061925283108 2.5
E 10.956266555617926 6.10262745313738 26.04425500047836 0.5
E 12.669046412511651 6.78532113754626 30.691868850087857 0.5
E 14.04015867765936 5.541517851383487 27.679726001269174 0.5
E 9.585154290470218 7.346430739300153 29.056397849297042 0.5
P 12.557525779971673 8.750281885424679 27.7547797455811 0.5
P 11.067787188157904 4.137666705258962 28.981344104985116 0.5
A 28.642871420704374 30.14495064860767 27.04818126198329 2.5
E 28.263090186043897 29.398721078016948 24.6925693156356 0.5
E 29.02265265536485 30.89118021919839 29.403793208330985 0.5
E 30.929271047351868 29.13499674861634 26.99949998058366 0.5
E 26.35647179405688 31.154904548598996 27.096862543382922 0.5
P 29.5799642448505 32.30669405333185 26.212285041710977 0.5
P 27.705778596558247 27.983207243883484 27.884077482255606 0.5
A 34.71699984825694 10.928063033003502 35.895669476158965 2.5
E 34.949763726613156 8.465514633153068 36.25854184397962 0.5
E 34.48423596990072 13.390611432853936 35.53279710833831 0.5
E 32.266156850580956 10.765014808063679 36.361270031450424 0.5
E 37.167842845932924 11.091111257943325 35.430068920867505 0.5
P 35.15195913103674 11.327150310098592 38.32497797192183 0.5
P 34.28204056547714 10.528975755908412 33.4663609803961 0.5
A 0.39884712349670315 13.99642466734687 20.144350584425503 2.5
E 0.2902982210483288 15.947125592303163 21.704152827388874 0.5
E 0.5073960259450775 12.045723742390578 18.58454834146213 0.5
E -2.0569487770226242 13.628468730145435 20.433616765083254 0.5
E 2.8546430240160303 14.364380604548305 19.85508440376775 0.5
P -0.05643699743369324 15.516087238332457 18.212164765313958 0.5
P 0.8541312444270995 12.476762096361284 22.076536403537048 0.5
70
Properties=species:S:1:pos:R:3:radius:R:1
A 15.547294668608053 6.919857968260059 0.5520577914898224 2.5
E 17.669927233130625 5.858951331381879 -0.2346493356271535 0.5
E 13.424662104085481 7.98076460513824 1.3387649186067982 0.5
E 16.860280111545116 8.776240602446874 1.591246293218684 0.5
E 14.23430922567099 5.063475334073244 -0.4871307102390392 0.5
P 15.404115680400334 8.21535811234262 -1.5812914893402918 0.5
P 15.690473656815772 5.6243578241774985 2.6854070723199364 0.5
A 28.036380651709607 30.55987625183962 18.137124439516462 2.5
E 27.331733899093166 28.205809094740403 18.597386075865064 0.5
E 28.741027404326047 32.913943408938835 17.67686280316786 0.5
E 30.435019123970896 29.86883122984913 18.27492958082313 0.5
E 25.637742179448317 31.25092127383011 17.999319298209794 0.5
P 28.038917069556625 30.079434166412717 15.683724967531617 0.5
P 28.033844233862588 31.04031833726652 20.590523911501307 0.5
A 3.08565589940849 17.39098192677075 18.761852616575062 2.5
E 1.072498333259341 16.30642599947256 17.75143930786528 0.5
E 5.0988134655576385 18.47553785406894 19.772265925284845 0.5
E 2.724341039726343 16.097289307976318 20.870361800868253 0.5
E 3.446970759090637 18.68467454556518 16.653343432281872 0.5
P 4.523240048607541 15.547046502565708 17.876836252131746 0.5
P 1.648071750209439 19.234917350975792 19.64686898101838 0.5
A 4.002334097242344 38.013990795260696 38.591863429435 2.5
E 2.667569403859721 37.18413941448772 36.64770553998049 0.5
E 5.337098790624967 38.843842176033675 40.53602131888951 0.5
E 6.105859260074977 37.26547066306846 37.46718591964266 0.5
E 1.8988089344097117 38.76251092745293 39.71654093922734 0.5
P 4.211104551638974 40.2502967442605 37.49397882719352 0.5
P 3.7935636428457142 35.77768484626089 39.68974803167648 0.5
A 22.858568939915205 6.511788241819718 21.991448786925627 2.5
E 24.06366195554234 5.801288520222526 19.919507434160572 0.5
E 21.65347592428807 7.22228796341691 24.063390139690682 0.5
E 24.843777412343275 5.866778414884043 23.367279315790686 0.5
E 20.873360467487135 7.156798068755394 20.615618258060568 0.5
P 23.7841488363517 8.82028395738161 21.738171495117054 0.5
P 21.93298904347871 4.203292526257826 22.2447260787342 0.5
A 13.807224576722067 14.604619778657057 34.63879414570163 2.5
E 12.457485116275592 15.476198285491867 36.55414118875574 0.5
E 15.156964037168542 13.733041271822247 32.72344710264752 0.5
E 15.899860742220923 15.40010516706426 35.75148317488982 0.5
E 11.714588411223211 13.809134390249854 33.52610511651344 0.5
P 14.028758474260954 12.400633865985853 35.79783203506806 0.5
P 13.58569067918318 16.80860569132826 33.4797562563352 0.5
A 11.669034085924189 6.846870703151228 28.381765968916675 2.5
E 12.307645264557502 9.0300870971603 27.344586167988652 0.5
E 11.030422907290875 4.6636543091421565 29.418945769844697 0.5
E 13.89556781739536 6.732979784871854 29.512949597401914 0.5
E 9.442500354453017 6.960761621430602 27.250582340431436 0.5
P 10.728436772966024 8.059551632193159 30.35526075208494 0.5
P 12.609631398882353 5.634189774109296 26.408271185748408 0.5
A 29.114384506200807 31.02908525798212 27.42367070705919 2.5
E 30.007784793959722 30.587783967260368 25.130836413735796 0.5
E 28.22098421844189 31.470386548703875 29.716505000382586 0.5
E 29.445756165746626 28.622955307273745 28.015896579133468 0.5
E 28.783012846654987 33.4352152086905 26.831444834984914 0.5
P 31.425667428969525 31.544635285730745 28.22503168677199 0.5
P 26.80310158343209 30.513535230233497 26.62230972734639 0.5
A 34.68257579469671 11.003744709226279 35.48008303537338 2.5
E 33.5744649818773 9.12103601007389 34.26455912337089 0.5
E 35.79068660751612 12.886453408378667 36.69560694737588 0.5
E 33.164222529801904 12.63182190982799 34.34255589641564 0.5
E 36.200929059591516 9.375667508624568 36.617610174331126 0.5
P 33.03433619151482 10.769709278109463 37.34516577549136 0.5
P 36.3308153978786 11.237780140343094 33.615000295255406 0.5
A 1.067680928186299 13.839785183875538 20.18586244036699 2.5
E -0.3870216103340107 15.788422032434113 19.60564269159599 0.5
E 2.5223834667066085 11.891148335316963 20.76608218913799 0.5
E -0.9215055828904861 12.623363360908405 21.087779827249566 0.5
E 3.056867439263084 15.056207006842671 19.283945053484413 0.5
P 0.6469939322209541 12.853310459895937 17.927568821198605 0.5
P 1.4883679241516437 14.826259907855139 22.444156059535374 0.5
70
Properties=species:S:1:pos:R:3:radius:R:1
A 14.975894542444912 7.253925818926417 0.3093406476870953 2.5
E 17.403069748718803 7.84726637251616 0.22707579787079513 0.5
E 12.548719336171022 6.660585265336674 0.39160549750339546 0.5
E 15.020559637111592 6.732283208474321 -2.135223529478096 0.5
E 14.931229447778232 7.775568429378513 2.7539048248522864 0.5
P 15.573243307713494 4.882041341464092 0.8263884967354813 0.5
P 14.378545777176331 9.625810296388742 -0.20770720136129078 0.5
A 27.983240087588744 31.198816595018464 17.76627975774625 2.5
E 25.88200726171995 31.379667232725318 19.108708027089744 0.5
E 30.08447291345754 31.01796595731161 16.423851488402757 0.5
E 29.337653782152138 31.44347876800967 19.853312092207428 0.5
E 26.62882639302535 30.95415442202726 15.679247423285073 0.5
P 27.96364020313285 28.717398962303577 18.069895265553527 0.5
P 28.002839972044637 33.68023422773335 17.462664249938975 0.5
A 3.137009522461963 16.827610190839245 18.561341663488857 2.5
E 2.6448652178083965 15.61199886628728 16.4329424784164 0.5
E 3.6291538271155295 18.04322151539121 20.689740848561314 0.5
E 3.282875578202382 14.646053598895618 19.773585009492066 0.5
E 2.9911434667215437 19.009166782782874 17.349098317485648 0.5
P 5.583745527260766 16.71315520507043 18.060958830996704 0.5
P 0.6902735176631598 16.94206517660806 19.06172449598101 0.5
A 4.405757311567977 38.63893759665516 38.37630348813866 2.5
E 3.8931447692281345 39.612122543898465 36.13127800055623 0.5
E 4.918369853907819 37.66575264941186 40.62132897572109 0.5
E 5.575139719280931 40.75123690167664 39.024945477634425 0.5
E 3.2363749038550234 36.52663829163368 37.727661498642895 0.5
P 2.2563915525667033 39.5560541129521 39.264630077613525 0.5
P 6.555123070569251 37.721821080358225 37.487976898663796 0.5
A 23.759613366929425 6.492852441300374 21.767267410936956 2.5
E 24.100179140625908 5.225475398694634 19.639411592122286 0.5
E 23.419047593232943 7.760229483906114 23.895123229751626 0.5
E 26.216122558446752 6.392042564393787 22.220478135335632 0.5
E 21.3031041754121 6.593662318206961 21.31405668653828 0.5
P 24.07517246722351 8.645430616557897 20.535671026715413 0.5
P 23.44405426663534 4.340274266042851 22.9988637951585 0.5
A 13.77390956682826 15.277003211141725 34.373922979204146 2.5
E 14.751808236906069 15.932047372131603 36.579513906418924 0.5
E 12.796010896750452 14.621959050151847 32.16833205198937 0.5
E 15.119766197286921 17.057908406481463 33.248291327436384 0.5
E 12.4280529363696 13.496098015801987 35.49955463097191 0.5
P 15.640024279623146 13.649338063648537 34.029943261305746 0.5
P 11.907794854033375 16.90466835863491 34.717902697102545 0.5
A 11.439369547984784 7.120544157568031 29.027953060391226 2.5
E 12.061636751281608 8.29169148284857 31.147197612156766 0.5
E 10.81710234468796 5.949396832287493 26.908708508625686 0.5
E 11.771667309868082 4.911832027944791 30.150970836698022 0.5
E 11.107071786101486 9.32925628719127 27.90493528408443 0.5
P 9.040961383149817 7.118382921360024 29.733384562317212 0.5
P 13.83777771281975 7.122705393776038 28.32252155846524 0.5
A 29.521566468846057 31.754145635704155 28.007523342002415 2.5
E 28.165045877029172 29.985542260546065 26.87531577032817 0.5
E 30.878087060662942 33.52274901086225 29.139730913676658 0.5
E 31.44785822156318 30.169427275859217 28.175057826168104 0.5
E 27.595274716128934 33.3388639955491 27.839988857836726 0.5
P 30.35777934090141 32.535624887732055 25.78490366890061 0.5
P 28.685353596790705 30.972666383676255 30.23014301510422 0.5
A 34.764562618834226 10.891977285559614 34.905032975400765 2.5
E 34.04587288440413 10.978027449303719 32.512109985635774 0.5
E 35.48325235326432 10.80592712181551 37.297955965165755 0.5
E 33.95697049061687 13.235262481955868 35.231850115087404 0.5
E 35.572154747051584 8.54869208916336 34.578215835714126 0.5
P 32.51039314426769 10.025022928242457 35.55087360764887 0.5
P 37.018732093400764 11.758931642876771 34.25919234315266 0.5
A 1.5108067763169684 13.166291864265716 19.858569293530646 2.5
E -0.4775681484347267 14.542589679431966 20.492737632845113 0.5
E 3.4991817010686637 11.789994049099466 19.22440095421618 0.5
E 0.28494603547566477 11.090370774567338 20.520246762854697 0.5
E 2.736667517158272 15.242212953964094 19.196891824206595 0.5
P 0.6199473021661498 12.950987537054955 17.532625733595964 0.5
P 2.401666250467787 13.381596191476477 22.18451285346533 0.5
70
Properties=species:S:1:pos:R:3:radius:R:1
A 14.28958549372833 7.222727378229544 0.1020075672095694 2.5
E 16.455283663948446 7.774433373857251 -1.0184262460493114 0.5
E 12.123887323508212 6.671021382601836 1.2224413804684504 0.5
E 15.303577891995252 5.136633922497988 1.0347634357041267 0.5
E 13.275593095461408 9.3088208339611 -0.8307483012849878 0.5
P 15.018674549854051 8.485198997056113 2.1329173534618513 0.5
P 13.560496437602609 5.960255759402975 -1.9289022190427123 0.5
A 28.061313396110116 31.29579807222186 17.359585754673365 2.5
E 27.733730462795226 33.693941399346585 17.985363674040943 0.5
E 28.388896329425005 28.89765474509713 16.733807835305786 0.5
E 30.44169874741841 31.776023910732704 16.765322577870776 0.5
E 25.68092804480182 30.815572233711016 17.953848931475953 0.5
P 28.751570595332087 30.77782922509516 19.70591336869672 0.5
P 27.371056196888144 31.81376691934856 15.013258140650008 0.5
A 2.934470214344627 16.564939913549193 18.39765020836385 2.5
E 1.46704901747263 15.661611392642683 16.586387495699874 0.5
E 4.401891411216624 17.4682684344557 20.208912921027824 0.5
E 4.517026555087698 14.658149927593202 18.066489555762885 0.5
E 1.351913873601556 18.471729899505185 18.728810860964813 0.5
P 4.196290510323377 17.90589089429907 16.706597279599855 0.5
P 1.6726499183658772 15.223988932799317 20.088703137127844 0.5
A 4.853853029470399 38.9944788749342 38.591602979407 2.5
E 3.3905104878597387 40.79801996586379 37.66647156212558 0.5
E 6.31719557108106 37.19093778400462 39.51673439668842 0.5
E 6.880630289479514 40.312336592904046 37.95487307316934 0.5
E 2.827075769461285 37.67662115696436 39.22833288564466 0.5
P 4.825523817999463 40.11719458628592 40.825144312640305 0.5
P 4.882182240941336 37.871763163582486 36.358061646173695 0.5
A 24.010321933387175 6.861513650223038 21.756553026491694 2.5
E 22.96074866349289 4.603152119657993 21.537009981991485 0.5
E 25.05989520328146 9.119875180788082 21.976096070991904 0.5
E 25.4754066810413 6.002281463401161 23.591013909509275 0.5
E 22.54523718573305 7.720745837044914 19.922092143474114 0.5
P 25.742927668491316 6.2200128736106475 20.072345758875553 0.5
P 22.277716198283034 7.503014426835428 23.440760294107836 0.5
A 13.56864510906536 15.11836978630621 34.44703599469332 2.5
E 13.42889740618099 17.339297784900896 33.30776017005916 0.5
E 13.708392811949729 12.897441787711525 35.586311819327484 0.5
E 13.376673464744181 13.97112647927476 32.23412395797626 0.5
E 13.760616753386538 16.26561309333766 36.65994803141039 0.5
P 16.057343055244097 15.15458607447661 34.212364068046796 0.5
P 11.079947162886624 15.082153498135812 34.68170792133985 0.5
A 11.534378595874362 7.567460359422967 29.74129687257886 2.5
E 11.777404316725628 5.773900344374535 31.465849269991757 0.5
E 11.291352875023096 9.361020374471398 28.016744475165964 0.5
E 10.60933651974712 5.8937735793414765 28.13099574559266 0.5
E 12.459420672001603 9.241147139504456 31.35159799956506 0.5
P 9.224565690810987 8.049035934590872 30.567643839054064 0.5
P 13.844191500937736 7.08588478425506 28.914949906103658 0.5
A 29.839815376805397 32.28882634034082 28.60801439556515 2.5
E 29.33874777594141 30.102038749477614 29.711142353606082 0.5
E 30.340882977669384 34.47561393120402 27.504886437524217 0.5
E 31.6055406162069 31.18598629142316 27.22383297485316 0.5
E 28.074090137403896 33.39166638925848 29.99219581627714 0.5
P 28.142421598595586 31.787125374674577 26.84246901162719 0.5
P 31.53720915501521 32.790527306007064 30.373559779503108 0.5
A 35.06929072281146 10.990107828002813 34.57423734080011 2.5
E 33.040610764006324 11.67594383141389 35.864232147444284 0.5
E 37.097970681616594 10.304271824591735 33.284242534155936 0.5
E 36.504286692664756 12.339961521224742 36.113289508012556 0.5
E 33.63429475295816 9.640254134780884 33.035185173587664 0.5
P 35.34359746944487 9.000755173664812 36.06327455505338 0.5
P 34.794983976178045 12.979460482340814 33.08520012654684 0.5
A 1.4400449458997324 12.63456862089995 19.699892322667566 2.5
E 2.5916195622101483 13.561652756924376 21.715925781666407 0.5
E 0.2884703295893163 11.707484484875524 17.683858863668725 0.5
E -0.04086671702356148 11.264156710945164 21.175992537311988 0.5
E 2.920956608823026 14.004980530854736 18.223792108023144 0.5
P -0.21246119620345372 14.50873142113567 19.781973066605023 0.5
P 3.0925510880029186 10.76040582066423 19.61781157873011 0.5
70
Properties=species:S:1:pos:R:3:radius:R:1
A 13.893101700511318 7.220775857413726 40.06248106728103 2.5
E 15.393768826662896 7.750051311496758 38.134304293695905 0.5
E 12.39243457435974 6.691500403330695 41.99065784086615 0.5
E 15.176265374040014 8.814764803113055 41.49868795625095 0.5
E 12.609938026982622 5.6267869117143965 38.62627417831111 0.5
P 12.359645094205066 9.072549800068044 39.37732115756493 0.5
P 15.42655830681757 5.369001914759409 40.747640976997126 0.5
A 28.370583438552003 31.239212550428434 17.205831823223825 2.5
E 29.59330507369046 29.436034830146806 15.979658135672064 0.5
E 27.147861803413548 33.04239027071006 18.432005510775586 0.5
E 27.564833640947786 29.559308377770396 18.872771904434565 0.5
E 29.17633323615622 32.91911672308647 15.538891742013087 0.5
P 30.396840842394145 31.659298350909783 18.60861792723571 0.5
P 26.344326034709862 30.819126749947085 15.80304571921194 0.5
A 3.370419071506023 16.89947694850553 18.628053723103086 2.5
E 1.2296703345797817 18.13736935741801 18.995228380867932 0.5
E 5.511167808432264 15.66158453959305 18.26087906533824 0.5
E 2.1178691804712506 15.08117780293996 17.455489444394466 0.5
E 4.622968962540796 18.7177760940711 19.800618001811706 0.5
P 3.68396909274132 18.087504978979368 16.45083628265508 0.5
P 3.056869050270726 15.711448918031692 20.805271163551094 0.5
A 5.016067016562593 38.85823421272899 39.14886725171993 2.5
E 3.2995275172918133 40.14055983510525 37.86079382771 0.5
E 6.732606515833372 37.575908590352725 40.43694067572986 0.5
E 6.832711355255972 40.12464820251294 37.988695301889685 0.5
E 3.1994226778692134 37.59182022294504 40.30903920155017 0.5
P 4.958660622000375 40.59081512128043 40.950218938977734 0.5
P 5.0734734111248105 37.12565330417755 37.34751556446212 0.5
A 23.766765509439796 7.657227768527105 22.31757993860421 2.5
E 21.48823179352723 7.079395287351352 23.168693167939296 0.5
E 26.045299225352363 8.235060249702856 21.466466709269127 0.5
E 24.791126052215905 6.573240681057365 24.323984053582937 0.5
E 22.74240496666369 8.741214855996844 20.311175823625486 0.5
P 23.861473396409984 5.479825275211184 21.092855970418526 0.5
P 23.67205762246961 9.834630261843026 23.542303906789897 0.5
A 13.697365580001355 14.817669739966703 34.63558981508341 2.5
E 15.877866525416735 13.595222192122126 34.66780192166545 0.5
E 11.516864634585975 16.04011728781128 34.60337770850136 0.5
E 13.980640103011488 15.386663012679142 37.05344055493904 0.5
E 13.414091056991222 14.248676467254265 32.217739075227776 0.5
P 14.88697525197576 16.92287012196738 34.00079836904134 0.5
P 12.50775590802695 12.712469357966024 35.27038126112547 0.5
A 11.524987357323427 7.912465314080658 30.240966328441225 2.5
E 11.79408508632672 5.457577901538116 30.629700432918845 0.5
E 11.255889628320134 10.3673527266232 29.852232223963604 0.5
E 10.234826069766648 7.440298356680545 28.152296364941026 0.5
E 12.815148644880207 8.38463227148077 32.32963629194142 0.5
P 9.400588556642711 7.888254653654568 31.55867023280921 0.5
P 13.649386158004143 7.936675974506747 28.92326242407324 0.5
A 29.54488003165365 32.570115556596726 29.162800653537808 2.5
E 31.840190264964153 33.38016146350673 29.733218536812018 0.5
E 27.24956979834315 31.760069649686724 28.592382770263598 0.5
E 30.324515711399133 31.981451250298957 26.86157434103411 0.5
E 28.76524435190817 33.15877986289449 31.464026966041505 0.5
P 30.15620575475753 30.279416981229396 29.95588381253326 0.5
P 28.933554308549773 34.860814131964055 28.369717494542357 0.5
A 35.73405975689858 11.192382804922298 33.840364407545835 2.5
E 36.703076030817165 11.892687435628883 36.03594653652518 0.5
E 34.76504348298 10.492078174215713 31.64478227856649 0.5
E 37.4588238754876 12.551677363529496 32.645581147632 0.5
E 34.00929563830956 9.8330882463151 35.03514766745967 0.5
P 37.26252179310046 9.214532525666208 33.79663710785988 0.5
P 34.2055977206967 13.170233084178388 33.88409170723179 0.5
A 1.7298383295587862 12.230576336860619 19.842157101420696 2.5
E 4.054738122291684 12.320361192627205 20.75691369933453 0.5
E -0.5950614631741111 12.140791481094032 18.927400503506863 0.5
E 1.1054923224121769 10.558874543623995 21.593044070317013 0.5
E 2.3541843367053956 13.902278130097242 18.09127013252438 0.5
P 1.0552769779294449 14.08728088906213 21.3743500359833 0.5
P 2.404399681188128 10.373871784659107 18.30996416685809 0.5
70
Properties=species:S:1:pos:R:3:radius:R:1
A 13.802180575051048 7.2353589818562485 0.05710520025064534 2.5
E 12.967515153513462 4.952572413588429 -0.5278897722285142 0.5
E 14.636845996588635 9.518145550124068 0.6421001727298049 0.5
E 11.489576579656863 8.148114618239562 -0.20507776780356698 0.5
E 16.114784570445234 6.322603345472936 0.3192881683048577 0.5
P 13.349194488535462 6.781748320620314 2.473515962814984 0.5
P 14.255166661566635 7.688969643092183 -2.3593055623136934 0.5
A 28.220932151823245 31.333478090639844 17.212646666292915 2.5
E 26.10503326239169 30.092730482391307 17.695882904925778 0.5
E 30.3368310412548 32.574225698888384 16.729410427660053 0.5
E 27.12984988615059 32.429022984762746 15.248131236346875 0.5
E 29.3120144174959 30.23793319651694 19.177162096238956 0.5
P 27.457707820949853 33.207064693278475 18.68137464082601 0.5
P 28.984156482696637 29.45989148800121 15.74391869175982 0.5
A 3.826427182198078 16.895298608346174 19.15498809104912 2.5
E 4.218168581317489 17.242370543422776 21.599590256657535 0.5
E 3.4346857830786677 16.54822667326957 16.710385925440704 0.5
E 1.360160310237136 17.06919324206559 19.525512547233575 0.5
E 6.29269405415902 16.721403974626757 18.784463634864665 0.5
P 3.9450290054688972 19.364975050361398 18.785350593937334 0.5
P 3.707825358927259 14.42562216633095 19.524625588160905 0.5
A 5.125498939025499 38.965128106885984 39.702582783118196 2.5
E 5.921855254577498 41.22868047076416 39.00105066363829 0.5
E 4.3291426234734995 36.70157574300781 40.4041149025981 0.5
E 5.1333383189364 39.70269189316648 42.091293356898575 0.5
E 5.117659559114597 38.22756432060549 37.313872209337816 0.5
P 2.755740478168557 39.72823383819004 39.47473529015889 0.5
P 7.4952573998824406 38.202022375581926 39.9304302760775 0.5
A 23.21076776006176 8.653175245608454 23.12399929649515 2.5
E 23.207617968873034 6.351911154832823 24.100817428658587 0.5
E 23.213917551250486 10.954439336384084 22.147181164331712 0.5
E 24.409480814878147 7.794577839393707 21.10511408275583 0.5
E 22.012054705245372 9.5117726518232 25.14288451023447 0.5
P 21.016895135903873 8.187349013469143 22.019495412200186 0.5
P 25.404640384219647 9.119001477747764 24.228503180790113 0.5
A 14.110403856053669 14.707265228303312 34.426336602696516 2.5
E 11.808062817033841 15.680667651212389 34.467730601281204 0.5
E 16.412744895073494 13.733862805394235 34.38494260411183 0.5
E 14.780966718846894 16.36750771549712 32.68164742385747 0.5
E 13.439840993260443 13.047022741109505 36.17102578153556 0.5
P 14.81720735568185 16.302910115736054 36.21640537403523 0.5
P 13.403600356425487 13.111620340870571 32.6362678313578 0.5
A 11.747278370840911 7.487574694167129 30.26136271140159 2.5
E 10.337876923541373 5.5262933283386255 29.61563601658211 0.5
E 13.15667981814045 9.44885605999563 30.90708940622107 0.5
E 11.447361181448805 8.455540357345521 27.97595418021654 0.5
E 12.047195560233018 6.519609030988737 32.54677124258664 0.5
P 9.704330197280028 8.698532116606142 31.042352391988185 0.5
P 13.790226544401795 6.2766172717281155 29.48037303081499 0.5
A 29.176336087131304 32.67185686699257 29.980043084865336 2.5
E 30.38879277078276 33.46211202846638 27.941552081688375 0.5
E 27.963879403479847 31.88160170551876 32.0185340880423 0.5
E 28.157615611806698 30.813596389213153 28.65374123766843 0.5
E 30.19505656245591 34.53011734477199 31.306344932062242 0.5
P 31.110801745504133 31.19796244184282 30.559247573875187 0.5
P 27.241870428758475 34.14575129214232 29.400838595855486 0.5
A 35.6546154222324 11.632670639377055 33.60369647654216 2.5
E 37.24087139730632 12.56709054257927 31.912350436831904 0.5
E 34.068359447158485 10.69825073617484 35.295042516252416 0.5
E 35.137722971331264 9.729357670632696 32.067395094256554 0.5
E 36.17150787313354 13.535983608121414 35.13999785882777 0.5
P 37.516499998608026 10.308186140596183 34.61815526660979 0.5
P 33.79273084585678 12.957155138157928 32.58923768647453 0.5
A 2.0897824552283204 11.925912456270542 19.257319216840884 2.5
E 4.569565311972059 11.92505139654113 18.940024019938075 0.5
E -0.3900004015154179 11.926773515999953 19.574614413743692 0.5
E 2.397906527905552 12.529205472166003 21.66378905725238 0.5
E 1.7816583825510888 11.32261944037508 16.850849376429387 0.5
P 2.0140425104287223 14.35202803380379 18.658798820184384 0.5
P 2.1655224000279185 9.499796878737293 19.855839613497384 0.5
70
Properties=species:S:1:pos:R:3:radius:R:1
A 13.946650504914546 7.257640417779084 0.37178570954240914 2.5
E 13.735894857499032 4.815021368720341 0.8608605895537668 0.5
E 14.15740615233006 9.700259466837826 -0.11728917046894849 0.5
E 14.39009009815269 7.7038371107133665 2.791345553473448 0.5
E 13.503210911676401 6.811443724844801 -2.0477741343886295 0.5
P 16.39796512858723 6.966915990889691 -0.02386050032011161 0.5
P 11.495335881241862 7.548364844668476 0.7674319194049299 0.5
A 27.84741450524777 31.011662395082475 16.75554537892467 2.5
E 28.148524932011945 30.103527113926308 14.445865136550484 0.5
E 27.546304078483594 31.91979767623864 19.065225621298854 0.5
E 29.80481286138563 29.668211788756828 17.53895596332624 0.5
E 25.890016149109908 32.35511300140812 15.972134794523095 0.5
P 29.373168150592605 32.91440535709364 16.206323170493256 0.5
P 26.321660859902934 29.108919433071307 17.304767587356082 0.5
A 3.9313413085536673 16.740872145650847 19.45517401505474 2.5
E 6.293167106166452 16.055204013202754 19.006132687474118 0.5
E 1.569515510940882 17.42654027809894 19.904215342635364 0.5
E 3.6538807413458274 14.783215990555192 20.98507532300251 0.5
E 4.208801875761507 18.698528300746503 17.925272707106974 0.5
P 4.702570545146089 18.13637979183582 21.380729486617124 0.5
P 3.160112071961246 15.345364499465871 17.529618543492358 0.5
A 5.380244024953354 38.8105106441195 40.07301605038636 2.5
E 7.76128300895981 38.594155552641986 40.803662224011575 0.5
E 2.999205040946898 39.02686573559702 39.34236987676114 0.5
E 4.622920538106578 38.40396040053162 42.420605885879084 0.5
E 6.137567511800131 39.21706088770738 37.72542621489363 0.5
P 5.464591478451688 41.26772601397016 40.525761158872314 0.5
P 5.295896571455021 36.353295274268845 39.6202709419004 0.5
A 22.19948650393535 8.972714811935035 23.790225442195663 2.5
E 21.366317541180102 7.056556768136527 22.41757551206469 0.5
E 23.0326554666906 10.888872855733542 25.162875372326635 0.5
E 19.842992507185922 9.682341824262805 24.2299589372351 0.5
E 24.55598050068478 8.263087799607264 23.350491947156225 0.5
P 22.14689826583803 7.53230936395798 25.83288709373093 0.5
P 22.252074742032672 10.41312025991209 21.747563790660397 0.5
A 14.601814203437062 15.04064715560489 33.913728547481156 2.5
E 16.6224694381909 14.112857172685317 32.770855776847874 0.5
E 12.581158968683223 15.968437138524465 35.05660131811444 0.5
E 16.06252714982198 16.54488650493263 35.27519160911615 0.5
E 13.141101257052142 13.536407806277149 32.55226548584616 0.5
P 14.419413242572311 16.808829761425667 32.15581496543354 0.5
P 14.784215164301813 13.272464549784116 35.67164212952877 0.5
A 12.24564673389768 6.732939744872501 30.04969925411813 2.5
E 11.210702704580749 8.712207485498066 31.172815484567476 0.5
E 13.28059076321461 4.753672004246935 28.926583023668787 0.5
E 13.908544735123254 8.232972338180803 28.938541094119614 0.5
E 10.582748732672105 5.2329071515641985 31.16085741411665 0.5
P 13.799242914924061 6.445883252296083 31.98720731251905 0.5
P 10.692050552871297 7.019996237448918 28.112191195717212 0.5
A 28.61050382113959 32.37473736774365 30.23778902441507 2.5
E 30.342291960692084 33.17350306760686 28.621347501678155 0.5
E 26.8787156815871 31.575971667880438 31.85423054715198 0.5
E 28.424895451675315 30.224335406835095 28.976313325201588 0.5
E 28.796112190603868 34.5251393286522 31.49926472362855 0.5
P 30.403952837111557 31.380883875903244 31.668102229229493 0.5
P 26.817054805167626 33.36859085958405 28.807475819600644 0.5
A 35.49087845240996 11.838380983446326 34.15922702002116 2.5
E 34.0135927351606 10.009199292306747 33.309685231518316 0.5
E 36.96816416965932 13.667562674585906 35.00876880852401 0.5
E 36.85868830492058 10.155835596336358 35.40346864755646 0.5
E 34.12306859989934 13.520926370556294 32.91498539248587 0.5
P 36.973013101147295 11.567945480753844 32.164197816751816 0.5
P 34.00874380367262 12.108816486138808 36.15425622329051 0.5
A 2.6059536910293533 11.584057137104598 18.85603210174526 2.5
E 4.987091353353212 10.945378346609138 18.440974472450502 0.5
E 0.22481602870549455 12.222735927600057 19.271089731040018 0.5
E 3.351978724132918 13.814470713122144 19.70379499896423 0.5
E 1.8599286579257883 9.35364356108705 18.00826920452629 0.5
P 2.4522328952749937 12.515370555073831 16.54107524805127 0.5
P 2.759674486783713 10.652743719135364 21.17098895543925 0.5
70
Properties=species:S:1:pos:R:3:radius:R:1
A 14.09914725492632 7.746858196606715 0.7096455154186049 2.5
E 13.344697003485775 5.412834336157801 1.192488592366447 0.5
E 14.853597506366865 10.080882057055629 0.2268024384707628 0.5
E 16.371969208230436 7.194843295170082 1.592572419058302 0.5
E 11.826325301622205 8.29887309804335 -0.17328138822109218 0.5
P 14.816841609564962 7.041441888709694 -1.5788698648820763 0.5
P 13.381452900287679 8.452274504503738 2.998160895719286 0.5
A 27.38090700663864 30.40261946691223 16.237608021150976 2.5
E 27.583440591653627 28.45154362083749 17.787538080800466 0.5
E 27.178373421623654 32.35369531298697 14.687677961501485 0.5
E 27.0036796963199 31.915730152265667 18.19162839213468 0.5
E 27.75813431695738 28.889508781558796 14.28358765016727 0.5
P 29.843970079986747 30.794791746316772 16.40942536595638 0.5
P 24.917843933290534 30.01044718750769 16.06579067634557 0.5
A 3.526860503920832 16.590747729201695 19.2775404841419 2.5
E 5.833257207607081 17.53889877335765 19.0999346208079 0.5
E 1.2204638002345818 15.642596685045737 19.455146347475896 0.5
E 3.257494374512398 17.665754555794944 21.51847828138324 0.5
E 3.796226633329266 15.515740902608444 17.036602686900558 0.5
P 2.6005904927728043 18.63900794710452 18.183623692880353 0.5
P 4.453130515068859 14.542487511298871 20.371457275403444 0.5
A 5.7508113486935555 38.93858026762184 0.324839135348592 2.5
E 4.184135729069967 37.64773291407411 1.7840309022921077 0.5
E 7.317486968317144 40.22942762116956 -1.1343526315949237 0.5
E 4.009519078605594 40.70615640837953 0.018937489789255912 0.5
E 7.492103618781517 37.17100412686415 0.6307407809079281 0.5
P 6.624555437662868 40.14663146540396 2.3316235210084484 0.5
P 4.877067259724243 37.73052906983971 -1.6819452503112642 0.5
A 20.62499016105755 9.061047581473762 24.19471286482565 2.5
E 19.627856573131247 7.001936163625816 25.20257435169692 0.5
E 21.622123748983853 11.120158999321708 23.18685137795438 0.5
E 21.403022097164367 9.790939657597903 26.455669269449587 0.5
E 19.846958224950733 8.33115550534962 21.933756460201714 0.5
P 22.78146666550364 7.845597983135624 23.845011049456375 0.5
P 18.46851365661146 10.2764971798119 24.544414680194926 0.5
A 15.062223910176645 15.547964125705757 32.837511025409626 2.5
E 14.050651285520734 13.686586309660889 34.164912039038164 0.5
E 16.073796534832557 17.409341941750625 31.510110011781084 0.5
E 15.722498532494694 16.69978166541173 34.95584852881831 0.5
E 14.401949287858596 14.396146585999784 30.719173522000943 0.5
P 17.251003992361422 14.340243553238349 32.81196164832357 0.5
P 12.873443827991869 16.755684698173166 32.863060402495684 0.5
A 12.645746506784208 6.110801379482634 29.692139298323355 2.5
E 14.919604180044892 5.35970529395353 28.97420758008349 0.5
E 10.371888833523524 6.861897465011738 30.41007101656322 0.5
E 12.531807773392957 7.647550419756646 27.723530563137874 0.5
E 12.75968524017546 4.574052339208622 31.660748033508835 0.5
P 11.612988429214642 4.287546855967543 28.328631434138092 0.5
P 13.678504584353774 7.934055902997725 31.055647162508617 0.5
A 28.069945358317003 31.88280836824763 30.27641527428678 2.5
E 27.15612470121773 34.191458239773766 30.56807874022221 0.5
E 28.983766015416276 29.574158496721495 29.98475180835135 0.5
E 27.99957766608955 32.16859636907767 27.79380100572378 0.5
E 28.140313050544457 31.597020367417592 32.75902954284978 0.5
P 30.395881770721626 32.79848352313848 30.315897120322415 0.5
P 25.74400894591238 30.96713321335678 30.236933428251145 0.5
A 35.13901325430997 12.633476876187842 34.78340203243622 2.5
E 35.47609035726472 10.569710282453773 33.41327558817918 0.5
E 34.80193615135523 14.697243469921911 36.15352847669326 0.5
E 36.695324714961565 13.885692445781151 33.28012201703186 0.5
E 33.58270179365838 11.381261306594533 36.286682047840586 0.5
P 33.21176815725831 13.283725762274475 33.32981931307177 0.5
P 37.06625835136163 11.98322799010121 36.23698475180067 0.5
A 2.864289146453474 11.070173302157063 18.91614917096934 2.5
E 4.298671910682907 11.955701936080354 17.06996794362877 0.5
E 1.4299063822240403 10.184644668233771 20.76233039830991 0.5
E 1.213817838602432 12.90425519596293 18.513547545568738 0.5
E 4.514760454304517 9.236091408351195 19.318750796369944 0.5
P 1.6524762286962598 9.620351711299524 17.27922314727697 0.5
P 4.076102064210689 12.519994893014601 20.553075194661712 0.5
70
Properties=species:S:1:pos:R:3:radius:R:1
A 13.872180439717756 8.22978308059234 0.6449015471276784 2.5
E 12.710990978825333 6.018139876313279 0.5435438987787131 0.5
E 15.033369900610179 10.4414262848714 0.7462591954766438 0.5
E 15.320249182581744 7.557666942506224 -1.2789895134224587 0.5
E 12.424111696853767 8.901899218678455 2.568792607677816 0.5
P 12.197445848251725 9.182093026928444 -0.9483246810824435 0.5
P 15.546915031183786 7.277473134256235 2.2381277753378006 0.5
A 26.824170046679317 30.303618803206177 15.918054730690187 2.5
E 24.673541393496382 29.698675208220138 17.04003496357939 0.5
E 28.97479869986225 30.908562398192217 14.796074497800985 0.5
E 25.87603412995972 29.592040171246246 13.716988140610617 0.5
E 27.772305963398914 31.015197435166108 18.119121320769757 0.5
P 25.972210728674618 32.62260545634232 15.53534567273419 0.5
P 27.676129364684016 27.98463215007003 16.300763788646183 0.5
A 3.0745376121108845 16.611572444320878 19.16483659917047 2.5
E 4.44084972903975 17.425475853004855 17.235911395730692 0.5
E 1.7082254951820188 15.7976690356369 21.09376180261025 0.5
E 1.6919808864116594 15.232658434760781 17.6037046206171 0.5
E 4.457094337810109 17.990486453880976 20.72596857772384 0.5
P 4.646710662177711 14.691635623597152 19.46834031425824 0.5
P 1.5023645620440587 18.5315092650446 18.861332884082703 0.5
A 5.694807642079049 39.46200925843833 1.2522337093789992 2.5
E 5.041592205822088 41.796704588322484 0.6418999396655531 0.5
E 6.348023078336011 37.12731392855417 1.8625674790924454 0.5
E 8.042902313821042 40.222780091377196 1.6493220525549854 0.5
E 3.346712970337057 38.70123842549946 0.8551453662030131 0.5
P 5.138245869791032 39.931504153369566 3.643846875687675 0.5
P 6.251369414367067 38.99251436350709 -1.139379456929677 0.5
A 19.182807139853672 8.933577647120769 25.0181843384684 2.5
E 20.818226472078013 7.139574317527793 24.420726673694503 0.5
E 17.54738780762933 10.727580976713746 25.6156420032423 0.5
E 20.121260761693787 10.389434391451953 23.215468071375476 0.5
E 18.244353518013558 7.477720902789585 26.820900605561327 0.5
P 17.541250437377958 7.97857335739449 23.39237426371725 0.5
P 20.824363842329387 9.888581936847048 26.643994413219552 0.5
A 15.406465011757838 16.34493484736131 32.05316574189553 2.5
E 13.562389788653949 16.629793667416287 30.389362260660302 0.5
E 17.250540234861727 16.06007602730633 33.71696922313077 0.5
E 13.832515236809954 16.94520298784428 33.90042324031363 0.5
E 16.980414786705722 15.744666706878338 30.205908243477438 0.5
P 14.796490686498899 13.934844888011813 32.31660019364188 0.5
P 16.016439337016777 18.755024806710804 31.789731290149184 0.5
A 12.892067676731166 5.748601776489856 28.879373584668215 2.5
E 11.445666432750642 6.00221593729737 26.856108080872957 0.5
E 14.33846892071169 5.4949876156823425 30.902639088463474 0.5
E 13.043699772502004 8.235699325936158 29.082729152747216 0.5
E 12.740435580960328 3.2615042270435537 28.676018016589214 0.5
P 10.858614665485977 5.75366507329045 30.333692399124583 0.5
P 14.925520687976356 5.743538479689263 27.425054770211847 0.5
A 27.70088144991251 31.612846251984436 30.492019830210616 2.5
E 26.73297903036746 30.28828500965961 32.378472167687015 0.5
E 28.668783869457563 32.93740749430926 28.605567492734217 0.5
E 26.062927080700362 30.568508402531936 28.918341355877253 0.5
E 29.33883581912466 32.65718410143693 32.06569830454398 0.5
P 26.079070613033537 33.45808227253364 30.955521327349587 0.5
P 29.322692286791487 29.76761023143523 30.028518333071645 0.5
A 34.66359457418311 13.741029383932021 35.10175968859942 2.5
E 35.55920064542167 14.31815749349536 32.84016447496945 0.5
E 33.76798850294455 13.163901274368683 37.363354902229396 0.5
E 32.51573421792226 12.99669471771014 34.06124933561637 0.5
E 36.81145493044396 14.485364050153903 36.14227004158248 0.5
P 35.57715117076878 11.425238147698982 34.872575712234166 0.5
P 33.75003797759744 16.056820620165063 35.33094366496468 0.5
A 3.004395841508006 10.506032091082922 18.702186066121616 2.5
E 2.126328094803563 8.165334469208155 18.690711086894282 0.5
E 3.882463588212449 12.84672971295769 18.71366104534895 0.5
E 1.0904264257076905 11.216948400598922 20.144863811235272 0.5
E 4.918365257308322 9.795115781566922 17.25950832100796 0.5
P 4.351881688401937 9.990539468618703 20.743888602880237 0.5
P 1.6569099946140755 11.02152471354714 16.660483529362995 0.5
70
Properties=species:S:1:pos:R:3:radius:R:1
A 13.734461932073168 8.595434760519598 0.37012836677519095 2.5
E 11.942740650319482 7.139811933963307 -0.5895054359429628 0.5
E 15.526183213826855 10.05105758707589 1.3297621694933448 0.5
E 13.693854281178615 10.005931890474912 -1.693569495092373 0.5
E 13.775069582967722 7.184937630564285 2.4338262286427548 0.5
P 11.991451356316425 10.058875922027706 1.4046592264425315 0.5
P 15.477472507829912 7.131993599011491 -0.6644024928921497 0.5
A 26.07054558523584 30.725954484255105 15.36523491154465 2.5
E 23.619428369151173 30.235998897733655 15.320873709466483 0.5
E 28.52166280132051 31.215910070776555 15.409596113622818 0.5
E 26.54658825388521 28.30692486162347 15.779576633382922 0.5
E 25.59450291658647 33.14498410688674 14.95089318970638 0.5
P 26.194673626542325 30.32816156316784 12.900208943873247 0.5
P 25.946417543929357 31.12374740534237 17.830260879216052 0.5
A 2.6535445613210533 16.257668133293013 19.011659438381393 2.5
E 4.462766795569596 17.876359125967355 18.414537694232877 0.5
E 0.8443223270725102 14.63897714061867 19.60878118252991 0.5
E 3.938875894393589 15.570308817362472 21.0427824122618 0.5
E 1.3682132282485178 16.945027449223552 16.980536464500986 0.5
P 1.5026152536214041 18.034568986193296 20.341315441879875 0.5
P 3.8044738690207023 14.48076728039273 17.682003434882912 0.5
A 6.134705621885433 39.704041507095106 2.266832451930616 2.5
E 7.251101486391658 38.85272456473735 4.3353874396861 0.5
E 5.018309757379209 40.55535844945286 0.1982774641751326 0.5
E 4.425853987237188 37.88764459436141 2.441556079902269 0.5
E 7.843557256533678 41.5204384198288 2.092108823958963 0.5
P 4.691276938342855 41.19600723024903 3.659869392022434 0.5
P 7.578134305428011 38.21207578394118 0.8737955118387979 0.5
A 17.79910737913529 9.117344762505828 25.658073201173863 2.5
E 15.827282614477582 7.9780035900005055 24.626662133694996 0.5
E 19.770932143792997 10.25668593501115 26.68948426865273 0.5
E 16.680420165693175 11.331832712819908 25.35053127493293 0.5
E 18.917794592577405 6.902856812191748 25.965615127414797 0.5
P 16.745330355299213 8.898381727842294 27.914532634331756 0.5
P 18.852884402971366 9.336307797169363 23.40161376801597 0.5
A 15.638097773953472 17.18838766047881 31.228801966806664 2.5
E 17.136740058152622 15.592244239739372 30.02198902171538 0.5
E 14.139455489754322 18.784531081218248 32.43561491189794 0.5
E 14.552539512072904 17.80646118038106 29.06326545497921 0.5
E 16.72365603583404 16.57031414057656 33.39433847863412 0.5
P 13.957135381729145 15.366215521402706 31.551376193150958 0.5
P 17.3190601661778 19.010559799554912 30.90622774046237 0.5
A 12.924998883164417 5.046607812176598 28.718122248141764 2.5
E 13.908501853337949 6.650770542121289 30.364142856613803 0.5
E 11.941495912990884 3.442445082231907 27.072101639669725 0.5
E 14.778828183852728 3.43458577908721 29.18148159977101 0.5
E 11.071169582476106 6.658629845265986 28.254762896512517 0.5
P 11.566308767071803 4.008317438201579 30.541831179890877 0.5
P 14.28368899925703 6.084898186151617 26.89441331639265 0.5
A 27.334133599963067 31.664315809775175 30.91752530916507 2.5
E 28.701682153341594 31.462863979848773 33.00060670804801 0.5
E 25.96658504658454 31.865767639701577 28.834443910282136 0.5
E 28.14824634078006 29.423131833903998 30.16631639578731 0.5
E 26.520020859146076 33.90549978564635 31.668734222542835 0.5
P 25.406173175215653 30.5750447018695 32.07789467022654 0.5
P 29.262094024710482 32.75358691768085 29.757155948103605 0.5
A 34.37342834720868 14.666146238196928 35.688988088456995 2.5
E 35.07675736181015 12.302904813249508 36.10180555978519 0.5
E 33.67009933260721 17.029387663144348 35.2761706171288 0.5
E 36.04469005987766 14.840177338246448 33.837880997015795 0.5
E 32.7021666345397 14.492115138147408 37.540095179898195 0.5
P 32.65232039446775 13.869400893918318 34.0601896750909 0.5
P 36.09453629994961 15.462891582475539 37.317786501823086 0.5
A 3.0239161451816816 10.600704359544924 18.44812132498156 2.5
E 5.047236792036484 10.343086568163152 19.89373767573846 0.5
E 1.000595498326879 10.858322150926696 17.00250497422466 0.5
E 3.7022765743392814 12.947536631154989 17.916891226922612 0.5
E 2.345555716024082 8.253872087934859 18.97935142304051 0.5
P 4.326222057079971 9.778505258052968 16.478860562832057 0.5
P 1.7216102332833918 11.42290346103688 20.417382087131063 0.5
70
Properties=species:S:1:pos:R:3:radius:R:1
A 13.954107263335953 9.431839575889628 0.21555651990826027 2.5
E 11.997948450617749 9.283154968715989 -1.3340678174763536 0.5
E 15.910266076054157 9.580524183063266 1.7651808572928742 0.5
E 14.517740762893037 11.683928426937898 -0.7120280234953553 0.5
E 13.390473763778868 7.179750724841357 1.143141063311876 0.5
P 12.50298356853867 10.50700872284925 1.9442124509206122 0.5
P 15.405230958133235 8.356670428930006 -1.5130994111040916 0.5
A 25.48908449735203 30.618021485296946 15.487958697668926 2.5
E 26.903551263741576 32.67761876201607 15.402268415193507 0.5
E 24.074617730962487 28.558424208577826 15.573648980144345 0.5
E 24.020513540429892 31.697775591944314 17.19893222571165 0.5
E 26.95765545427417 29.53826737864958 13.776985169626201 0.5
P 24.04250815603287 31.535730658678883 13.667182280360544 0.5
P 26.935660838671193 29.70031231191501 17.308735114977306 0.5
A 2.3578765310498535 15.851425594718494 19.00780803416554 2.5
E 3.182966010920054 18.197659511052837 18.754009373709494 0.5
E 1.5327870511796529 13.505191678384152 19.261606694621584 0.5
E 1.2543263966867195 16.472673720146233 21.163319079741267 0.5
E 3.4614266654129873 15.230177469290755 16.85229698858981 0.5
P 0.2718745053667586 16.450789571358964 17.767099215646425 0.5
P 4.443878556732948 15.252061618078022 20.248516852684652 0.5
A 6.766266844428428 40.28152409393407 2.9375460481102866 2.5
E 4.838330054644443 40.671695372110065 4.4805386301677 0.5
E 8.694203634212414 39.89135281575807 1.3945534660528727 0.5
E 6.431783378334961 42.55177823311438 1.9455445589758122 0.5
E 7.100750310521896 38.01126995475375 3.929547537244761 0.5
P 8.32228115847178 41.25297276330441 4.63610630234652 0.5
P 5.210252530385077 39.31007542456372 1.2389857938740532 0.5
A 17.347775235043034 9.182758490153782 25.81131542549379 2.5
E 15.208790093877246 7.991387793564263 26.316665234221304 0.5
E 19.486760376208824 10.374129186743302 25.30596561676628 0.5
E 16.08563806292109 11.318945525271118 25.50518684181401 0.5
E 18.609912407164977 7.046571455036447 26.117444009173575 0.5
P 17.63369886929028 9.69980859827249 28.24049365301734 0.5
P 17.061851600795787 8.665708382035074 23.382137197970245 0.5
A 15.654116519234769 17.784490772441377 30.973666640580248 2.5
E 16.511910549176015 19.80005352087341 32.17853020519228 0.5
E 14.796322489293523 15.768928024009346 29.76880307596821 0.5
E 16.31619118054551 16.346206613498005 32.90834899719132 0.5
E 14.992041857924029 19.22277493138475 29.038984283969178 0.5
P 13.401152572553249 18.129230507988385 32.000948476148054 0.5
P 17.907080465916287 17.439751036894368 29.946384805012446 0.5
A 12.642790680550057 4.618683157065997 28.42584453325567 2.5
E 12.664656887568038 3.167699325651586 30.46156744906783 0.5
E 12.620924473532076 6.069666988480408 26.390121617443512 0.5
E 12.601989987435326 2.58294639088329 26.975289080247585 0.5
E 12.683591373664788 6.654419923248705 29.876399986263756 0.5
P 10.143219282804003 4.639219461117257 28.467330528289054 0.5
P 15.142362078296111 4.598146853014738 28.384358538222287 0.5
A 26.725238551397695 32.1857690972 31.2513873324593 2.5
E 27.022846676738432 34.66799162249283 31.250527878817895 0.5
E 26.427630426056957 29.70354657190718 31.252246786100702 0.5
E 28.115768438463917 32.019767421001944 33.32234606615621 0.5
E 25.334708664331473 32.35177077339806 29.180428598762386 0.5
P 24.669063452602057 32.432780794147384 32.6517905546294 0.5
P 28.781413650193333 31.938757400252616 29.850984110289197 0.5
A 33.95539781472075 15.502829593891112 35.74129667969805 2.5
E 34.52598058813164 15.906368218133352 33.34096506147675 0.5
E 33.38481504130986 15.099290969648873 38.141628297919354 0.5
E 32.09381340730205 13.986859217852505 35.04391779198317 0.5
E 35.816982222139444 17.01879996992972 36.438675567412936 0.5
P 35.523498191847104 13.556296676697176 35.78680282805337 0.5
P 32.38729743759439 17.44936251108505 35.69579053134274 0.5
A 3.063414470870807 10.66281172185292 18.993820489617757 2.5
E 4.732150767105308 9.517151885062132 17.526584069678847 0.5
E 1.3946781746363062 11.808471558643708 20.461056909556667 0.5
E 4.758193565697594 12.412969813555632 19.554775455534546 0.5
E 1.3686353760440204 8.912653630150208 18.43286552370097 0.5
P 2.293321623631758 12.031902731396519 17.04894342043852 0.5
P 3.8335073181098562 9.293720712309321 20.938697558796996 0.5
70
Properties=species:S:1:pos:R:3:radius:R:1
A 13.786371705676899 9.893395388686548 0.20458066714956888 2.5
E 12.45334706615056 9.785737262195424 -1.9076350032346485 0.5
E 15.119396345203238 10.001053515177672 2.3167963375337863 0.5
E 12.436934244351194 11.859192765079678 0.956018763693312 0.5
E 15.135809167002604 7.9275980122934175 -0.5468574293941741 0.5
P 12.157855863449054 8.352600008771724 1.310874366330136 0.5
P 15.414887547904744 11.434190768601372 -0.9017130320309983 0.5
A 24.491641897355674 30.507901263102188 15.668951927006237 2.5
E 26.801215453974063 30.829770957802403 14.767691761347812 0.5
E 22.182068340737285 30.186031568401972 16.57021209266466 0.5
E 25.41583898476278 30.368989123104217 17.98769364634226 0.5
E 23.56744480994857 30.646813403100158 13.350210207670212 0.5
P 24.243187212961754 32.983199894983755 15.916271462845891 0.5
P 24.740096581749594 28.03260263122062 15.421632391166582 0.5
A 1.7049712660305867 15.83436743950582 19.25956536703222 2.5
E 1.6247980842572938 17.42571076935385 17.333118205163483 0.5
E 1.7851444478038796 14.243024109657792 21.186012528900957 0.5
E 0.19133020191923245 17.336987002560406 20.563798926545644 0.5
E 3.2186123301419407 14.331747876451233 17.955331807518796 0.5
P -0.2831089612137172 14.626161804990982 18.34426423911507 0.5
P 3.693051493274891 17.04257307402066 20.17486649494937 0.5
A 7.003257077759295 0.5244921097499489 3.359418476618326 2.5
E 8.357442239768949 2.5976583913067586 3.703168554449433 0.5
E 5.649071915749641 -1.548674171806861 3.015668398787219 0.5
E 8.800199195019522 -0.4058295175982004 1.8912561228901288 0.5
E 5.206314960499068 1.4548137370980982 4.827580830346523 0.5
P 8.092835700075883 -0.5178529572524793 5.353493497044209 0.5
P 5.913678455442706 1.566837176752377 1.365343456192443 0.5
A 17.507193418484476 9.33768904272844 25.71438483896872 2.5
E 15.94621418580798 8.84338593964557 27.603566745889445 0.5
E 19.06817265116097 9.831992145811311 23.825202932047993 0.5
E 15.968343675873669 11.138027299399269 24.91393269721671 0.5
E 19.046043161095284 7.537350786057611 26.51483698072073 0.5
P 18.709393611805307 11.000351547222774 27.14276437233136 0.5
P 16.304993225163646 7.675026538234106 24.28600530560608 0.5
A 16.01344986594137 17.077537534421296 30.705269822118854 2.5
E 17.8903246109976 15.510432245488047 30.184191896308114 0.5
E 14.136575120885144 18.644642823354545 31.226347747929594 0.5
E 16.92967389288594 18.721906591382314 29.060099941237773 0.5
E 15.097225838996803 15.433168477460278 32.350439702999935 0.5
P 14.639450330344921 16.03339606033542 28.89643211290496 0.5
P 17.387449401537822 18.121679008507172 32.51410753133275 0.5
A 12.763964985506735 4.069007430583528 28.365782609196703 2.5
E 14.119892853060351 1.9687836088534367 28.388575516581835 0.5
E 11.40803711795312 6.169231252313619 28.34298970181157 0.5
E 14.571360648879992 5.221924429467033 27.079663131969525 0.5
E 10.956569322133479 2.916090431700023 29.65190208642388 0.5
P 11.694020812192463 3.354975013727671 26.22209952308814 0.5
P 13.833909158821008 4.783039847439385 30.509465695305266 0.5
A 25.858516561597572 32.593115580835054 31.48629169121002 2.5
E 24.3142074228595 34.54988056621634 31.67650230078877 0.5
E 27.402825700335644 30.636350595453766 31.29608108163127 0.5
E 26.49891961091514 32.86511609985676 33.887520470830395 0.5
E 25.218113512280002 32.321115061813344 29.08506291158965 0.5
P 23.99975535626879 31.061095179652956 32.155560151491095 0.5
P 27.717277766926355 34.125135982017156 30.817023230928942 0.5
A 33.485125695324776 16.309535708223603 35.67130645190932 2.5
E 31.139697542941665 15.512430167262364 35.334275980617456 0.5
E 35.83055384770788 17.106641249184843 36.00833692320118 0.5
E 33.97978204538451 14.275902601987594 37.03865844922677 0.5
E 32.99046934526504 18.34316881445961 34.30395445459186 0.5
P 34.19525376641893 15.093411065848759 33.605692989314164 0.5
P 32.77499762423062 17.525660350598447 37.73691991450447 0.5
A 2.8494869210857163 10.581444237549743 19.316660680590697 2.5
E 4.4348863963378085 9.207176106240555 20.676033921146683 0.5
E 1.264087445833624 11.955712368858931 17.957287440034712 0.5
E 4.596142353892564 10.846772819392736 17.547820511806403 0.5
E 1.1028314882788695 10.31611565570675 21.08550084937499 0.5
P 2.02141488139469 8.509974265060043 18.18825080374771 0.5
P 3.6775589607767425 12.652914210039443 20.445070557433684 0.5
70
Properties=species:S:1:pos:R:3:radius:R:1
A 13.384585186150524 10.338512858125876 0.5183825402715025 2.5
E 12.72473344262069 9.727372022303602 -1.8142345640453654 0.5
E 14.044436929680357 10.94965369394815 2.8509996445883705 0.5
E 11.239376015414202 9.382866507544279 1.3755976045403053 0.5
E 15.529794356886846 11.294159208707473 -0.33883252399730024 0.5
P 14.485799647711001 8.110678274632065 0.7905585462667766 0.5
P 12.283370724590046 12.566347441619687 0.24620653427622852 0.5
A 24.013849801637093 30.32557640016397 15.859792997452983 2.5
E 25.126725168674 31.698126955738232 14.091287020693189 0.5
E 22.900974434600187 28.95302584458971 17.628298974212775 0.5
E 23.56972389976942 32.396664812250926 17.187702999150844 0.5
E 24.457975703504765 28.254487988077017 14.531882995755122 0.5
P 21.81970746333437 30.602520007621845 14.694013585404749 0.5
P 26.207992139939815 30.048632792706098 17.025572409501216 0.5
A 1.5585701701979384 16.353004478390247 20.079670937409986 2.5
E 3.122690606610882 16.193705302690738 18.135924289048493 0.5
E -0.005550266215004873 16.512303654089756 22.02341758577148 0.5
E 1.8023168375835934 18.84108149020532 20.07190270624348 0.5
E 1.3148235028122834 13.864927466575173 20.08743916857649 0.5
P -0.37640135996302604 16.537657005853386 18.50747863951265 0.5
P 3.493541700358903 16.168351950927107 21.65186323530732 0.5
A 7.062590335801483 0.7579319018904422 3.9287163417651403 2.5
E 8.992479877641598 -0.34903249401059133 2.7884724281643836 0.5
E 5.132700793961368 1.8648962977914758 5.068960255365897 0.5
E 7.118113477571033 -0.9877560837579553 5.717428346949552 0.5
E 7.007067194031933 2.50361988753884 2.1400043365807284 0.5
P 8.650810577778064 2.1640625085448386 5.251725480057673 0.5
P 5.474370093824902 -0.6481987047639541 2.6057072034726074 0.5
A 17.611152244522064 9.538365739512198 25.60643603246761 2.5
E 16.30479697913111 7.652845333552341 26.60054302836675 0.5
E 18.91750750991302 11.423886145472053 24.612329036568468 0.5
E 16.44123911428794 11.14725428654756 27.120629187558976 0.5
E 18.78106537475619 7.929477192476837 24.092242877376243 0.5
P 19.39293202560962 9.212343590067215 27.329506074508892 0.5
P 15.829372463434504 9.86438788895718 23.883365990426327 0.5
A 16.294003021948512 16.3620082280206 30.66535589960567 2.5
E 16.280127565486175 17.44795048521947 32.91714116595273 0.5
E 16.30787847841085 15.276065970821728 28.413570633258615 0.5
E 18.216165047724246 14.926835237516055 31.36932438895152 0.5
E 14.37184099617278 17.797181218525143 29.961387410259825 0.5
P 14.695534811950706 14.626782622701233 31.49233321505655 0.5
P 17.892471231946317 18.097233833339967 29.838378584154793 0.5
A 12.972433081377725 3.303042314071415 27.961713234095008 2.5
E 14.971931380890762 1.9658296425150814 28.64279239342355 0.5
E 10.972934781864687 4.640254985627749 27.280634074766464 0.5
E 14.410522503860946 5.334691018142272 27.72868457451188 0.5
E 11.534343658894503 1.2713936100005583 28.194741893678135 0.5
P 13.401274967373455 2.7248850566799603 25.567589423065336 0.5
P 12.543591195381994 3.88119957146287 30.35583704512468 0.5
A 25.258465572169268 32.74455020802802 31.545084437200675 2.5
E 23.693702580455653 33.34505671921712 33.400053091864045 0.5
E 26.823228563882882 32.14404369683893 29.690115782537305 0.5
E 27.20715361674895 33.30463466575668 33.007589242363274 0.5
E 23.309777527589585 32.18446575029937 30.082579632038076 0.5
P 25.322743754131388 30.383258754134417 32.363724153494324 0.5
P 25.194187390207148 35.10584166192163 30.72644472090703 0.5
A 32.90460921327237 16.663202843615142 35.73590079585612 2.5
E 30.479813575933697 16.195290273128627 35.346768500196184 0.5
E 35.32940485061105 17.131115414101657 36.12503309151605 0.5
E 32.9999675066943 14.792291243657347 37.3913755256604 0.5
E 32.80925091985045 18.53411444357294 34.080426066051835 0.5
P 33.50566903809893 15.072370479245594 33.90342174400985 0.5
P 32.303549388445816 18.254035207984693 37.56837984770239 0.5
A 3.1612010463361093 10.956793017225033 19.76380745174852 2.5
E 5.27493507193651 12.243149439387324 19.40685419965192 0.5
E 1.0474670207357084 9.670436595062743 20.120760703845118 0.5
E 4.035058927316078 9.118186389795904 18.312636175356836 0.5
E 2.2873431653561402 12.795399644654163 21.214978728140203 0.5
P 4.1704090887484275 9.854607540666347 21.767974685887122 0.5
P 2.151993003923791 12.05897849378372 17.759640217609917 0.5
70
Properties=species:S:1:pos:R:3:radius:R:1
A 13.27385134425499 11.408136890707485 0.5115719567378306 2.5
E 12.826616893880633 10.413430104390805 -1.7379923912313933 0.5
E 13.721085794629346 12.402843677024165 2.7611363047070547 0.5
E 10.989331019168048 10.728755537638854 1.2661631449766044 0.5
E 15.55837166934193 12.087518243776117 -0.24301923150094318 0.5
P 14.185414962804632 9.217475030365161 1.2990060066610647 0.5
P 12.362287725705347 13.59879875104981 -0.27586209318540345 0.5
A 23.762211244882053 29.458733994120184 16.429601506029204 2.5
E 23.94563561828033 30.005839204185012 13.997106616340158 0.5
E 23.578786871483775 28.911628784055356 18.86209639571825 0.5
E 21.33977682085198 28.92060874510122 16.125903172740504 0.5
E 26.184645668912125 29.99685924313915 16.733299839317905 0.5
P 24.35226798835467 27.07942798070195 15.938953022902744 0.5
P 23.172154501409437 31.838040007538417 16.920249989155664 0.5
A 2.1306416900196936 16.62226284841826 20.60368055551206 2.5
E 4.586516083984432 16.158048594462926 20.660125993704035 0.5
E -0.3252327039450451 17.086477102373593 20.547235117320085 0.5
E 2.5815086733378654 18.892694003819383 19.65929645360376 0.5
E 1.6797747067015218 14.351831693017136 21.548064657420362 0.5
P 2.0065452580743646 15.684367601064764 18.289603508270584 0.5
P 2.2547381219650227 17.560158095771754 22.917757602753536 0.5
A 7.520052375193436 0.5927335426158609 4.564494569661611 2.5
E 6.232150798392604 -1.2076351760125033 5.726381829880149 0.5
E 8.807953951994268 2.393102261244225 3.4026073094430727 0.5
E 6.39963837981214 2.314088508368128 5.989839987738746 0.5
E 8.640466370574732 -1.128621423136406 3.1391491515844763 0.5
P 9.3465194587806 0.3791695970065351 6.258132203191323 0.5
P 5.693585291606272 0.8062974882251867 2.8708569361318985 0.5
A 17.614790000014846 9.746375541624808 25.936723347936265 2.5
E 17.4748529544355 7.8811685496335695 24.277982711096712 0.5
E 17.75472704559419 11.611582533616046 27.59546398477582 0.5
E 16.42468271521292 11.25658361347503 24.33893855943026 0.5
E 18.80489728481677 8.236167469774585 27.53450813644227 0.5
P 15.420692856783198 9.046179528535049 26.909175541782982 0.5
P 19.808887143246494 10.446571554714566 24.96427115408955 0.5
A 15.767486997161235 15.579095476033988 30.53522997478059 2.5
E 13.333903598795963 16.111376903408296 30.32463955412202 0.5
E 18.201070395526507 15.04681404865968 30.745820395439164 0.5
E 15.442011655528475 15.049015021655396 32.95660985284076 0.5
E 16.092962338793996 16.10917593041258 28.113850096720423 0.5
P 15.296596728425701 13.194626731437406 29.94993418558335 0.5
P 16.23837726589677 17.96356422063057 31.120525763977835 0.5
A 13.26190854031473 2.5281489185388053 27.446094327996672 2.5
E 14.07140906319758 4.872686062177289 27.75891134407771 0.5
E 12.45240801743188 0.1836117749003212 27.133277311915634 0.5
E 14.121959880640052 2.5443903924034847 25.09874520472394 0.5
E 12.401857199989408 2.511907444674126 29.793443451269404 0.5
P 15.465319667511595 1.660461303884687 28.247404260493976 0.5
P 11.058497413117864 3.3958365331929237 26.644784395499368 0.5
A 25.333650635633507 32.94247029194562 31.269468136969017 2.5
E 25.52311395937599 33.90294538831171 33.56981403231124 0.5
E 25.144187311891024 31.98199519557953 28.969122241626792 0.5
E 27.711860437645562 33.56427207024053 30.813967658238322 0.5
E 22.955440833621452 32.32066851365071 31.724968615699712 0.5
P 26.0807930494818 30.719667975550692 32.136029199825586 0.5
P 24.586508221785213 35.165272608340544 30.40290707411245 0.5
A 32.351348475394694 17.65879041400638 35.97933329744163 2.5
E 31.717785348648018 19.39207092635925 34.29281723468786 0.5
E 32.98491160214137 15.925509901653509 37.665849360195395 0.5
E 29.933622770974917 17.245615915659325 36.46295427724428 0.5
E 34.76907417981447 18.071964912353433 35.495712317638976 0.5
P 32.29477831880494 15.905215351622351 34.19838570754181 0.5
P 32.40791863198445 19.412365476390406 37.760280887341445 0.5
A 3.6747226339955477 11.026196504964277 20.662201058303022 2.5
E 3.449409512581607 13.46777018800886 20.174397873007692 0.5
E 3.900035755409488 8.584622821919695 21.150004243598353 0.5
E 3.6251146106799905 10.532095087460496 18.212016813548168 0.5
E 3.724330657311105 11.520297922468059 23.112385303057877 0.5
P 6.164054480363741 11.23734038833843 20.56922138755585 0.5
P 1.1853907876273544 10.815052621590125 20.755180729050196 0.5
70
Properties=species:S:1:pos:R:3:radius:R:1
A 13.534145031771004 12.210033847882842 0.2904488758095687 2.5
E 13.369964157938057 10.59556879713537 -1.6112733017397158 0.5
E 13.698325905603951 13.824498898630315 2.1921710533588534 0.5
E 11.278450047122291 13.119992276758662 -0.28731906545134434 0.5
E 15.789840016419717 11.300075419007023 0.8682168170704817 0.5
P 12.468835322391392 10.532095154833184 1.8069042709559995 0.5
P 14.599454741150616 13.8879725409325 -1.226006519336862 0.5
A 23.999232173344186 28.384414918065286 17.519150927155433 2.5
E 24.689490588800098 26.80071731163218 15.712096635975923 0.5
E 23.308973757888275 29.96811252449839 19.32620521833494 0.5
E 21.599372009406235 27.83673633141107 17.082436650695307 0.5
E 26.399092337282138 28.9320935047195 17.95586520361556 0.5
P 24.11845680769441 26.529165593284805 19.190627947477747 0.5
P 23.88000753899396 30.239664242845766 15.847673906833117 0.5
A 2.8959028266907345 16.70366236149558 21.161983386047613 2.5
E 3.2019601795249835 14.237331578021317 20.890798277195902 0.5
E 2.5898454738564856 19.169993144969844 21.433168494899324 0.5
E 4.615862214378314 17.1114869803017 19.394097986763878 0.5
E 1.175943439003155 16.295837742689464 22.929868785331347 0.5
P 1.1075883684700736 16.67380358083617 19.415260783074814 0.5
P 4.684217284911395 16.73352114215499 22.90870598902041 0.5
A 7.708593935648694 0.01161669737148095 4.854467937723238 2.5
E 5.419559153658245 -0.026861515722313108 3.8500580642379267 0.5
E 9.997628717639143 0.05009491046527501 5.85887781120855 0.5
E 6.769067823050954 0.9813641096426162 6.9584832989172 0.5
E 8.648120048246433 -0.9581307148996543 2.7504525765292773 0.5
P 7.351367885948158 -2.2923167616308144 5.75684267468389 0.5
P 8.065819985349231 2.3155501563737766 3.952093200762587 0.5
A 17.93040015169856 9.703279056416218 26.238010927005213 2.5
E 17.442757412420605 8.20655451567913 28.180179871249226 0.5
E 18.418042890976515 11.200003597153305 24.2958419827612 0.5
E 20.207277048558257 8.691989280814367 26.030346326481272 0.5
E 15.653523254838863 10.714568832018069 26.445675527529154 0.5
P 17.020435231837855 7.974953670697554 24.677608669347148 0.5
P 18.840365071559265 11.431604442134882 27.79841318466328 0.5
A 15.90264229840721 15.118490206710984 30.45014276315463 2.5
E 14.468354372078629 13.346820142444193 29.42349612103826 0.5
E 17.33693022473579 16.890160270977773 31.476789405271003 0.5
E 17.628724613263138 13.398064653438066 31.007615415387043 0.5
E 14.176559983551284 16.8389157599839 29.892670110922218 0.5
P 17.00421298916179 15.507490333994177 28.23988917719577 0.5
P 14.80107160765263 14.72949007942779 32.66039634911349 0.5
A 13.082787695706937 2.608483513689957 27.01463227008188 2.5
E 11.950059920977711 0.7401994349309728 25.799542812712332 0.5
E 14.215515470436163 4.476767592448941 28.229721727451427 0.5
E 15.250895383152839 1.3691494777630737 26.899045925606753 0.5
E 10.914680008261035 3.84781754961684 27.130218614557005 0.5
P 13.598769133350693 3.7146325761796515 24.832844606820807 0.5
P 12.566806258063181 1.502334451200262 29.196419933342952 0.5
A 25.566900056026206 33.01440782408721 30.229986380586574 2.5
E 27.417902569701052 32.30837685194234 31.75488308552852 0.5
E 23.71589754235136 33.720438796232074 28.70508967564463 0.5
E 26.974675494928245 32.42715641152599 28.249253159763978 0.5
E 24.159124617124167 33.60165923664842 32.210719601409174 0.5
P 24.649317357848652 30.689186104590707 30.267214692234663 0.5
P 26.48448275420376 35.339629543583705 30.192758068938485 0.5
A 32.16951156865255 18.38248552210256 35.861737833238884 2.5
E 32.33481202392219 19.640478119134954 38.01583402080823 0.5
E 32.004211113382915 17.124492925070165 33.70764164566954 0.5
E 30.037465018151128 19.574464280836 35.32923041993394 0.5
E 34.30155811915398 17.190506763369118 36.394245246543825 0.5
P 33.464522482113935 20.184329373423044 34.710084469819165 0.5
P 30.87450065519117 16.580641670782075 37.0133911966586 0.5
A 4.269991190655186 11.19988834280547 20.929589014316992 2.5
E 2.2039379256996536 12.435058806437704 21.604702213816555 0.5
E 6.336044455610718 9.964717879173238 20.25447581481743 0.5
E 3.7189078048504065 11.593450719718582 18.52305296485298 0.5
E 4.821074576459965 10.80632596589236 23.336125063781004 0.5
P 5.565263752032884 13.33751847480924 20.98256457937318 0.5
P 2.974718629277488 9.062258210801701 20.876613449260805 0.5
70
Properties=species:S:1:pos:R:3:radius:R:1
A 13.62284547376358 12.936206402177362 0.07531808022148387 2.5
E 13.387307693031872 10.723948586179937 1.2156852620565786 0.5
E 13.858383254495287 15.148464218174787 -1.0650491016136108 0.5
E 15.373894485553823 11.974892801171581 -1.4279129462112263 0.5
E 11.871796461973336 13.897520003183143 1.5785491066541941 0.5
P 11.85413144595789 12.27909795140243 -1.564760933656743 0.5
P 15.391559501569269 13.593314852952293 1.7153970940997108 0.5
A 24.254141857832877 27.341146807462383 18.33507295220121 2.5
E 23.223449765198687 25.176501816124592 17.62656333924084 0.5
E 25.284833950467068 29.505791798800175 19.04358256516158 0.5
E 22.308622908646814 28.582238801916414 17.373487449159622 0.5
E 26.19966080701894 26.100054813008352 19.296658455242795 0.5
P 23.06981511721651 27.186218686135078 20.53128957373076 0.5
P 25.438468598449244 27.49607492878969 16.138856330671658 0.5
A 3.388914267177221 16.51977200038905 22.001368002691226 2.5
E 1.6777821225484641 14.899347099316978 21.16695208505579 0.5
E 5.100046411805978 18.140196901461124 22.835783920326662 0.5
E 2.177707451973891 18.385965079273525 20.861060393697795 0.5
E 4.600121082380551 14.653578921504574 23.141675611684658 0.5
P 2.026928645218301 16.895998703732758 24.063757062317933 0.5
P 4.750899889136141 16.143545297045343 19.93897894306452 0.5
A 7.677424382776266 39.92682286221981 5.4740675957075995 2.5
E 6.835458676054154 42.24431710593315 5.886758980472615 0.5
E 8.519390089498378 37.60932861850647 5.061376210942584 0.5
E 5.400798685935594 39.236545305440956 4.705632607506303 0.5
E 9.954050079616938 40.61710041899866 6.242502583908896 0.5
P 8.27581320719434 40.5614387499525 3.131164804329222 0.5
P 7.079035558358193 39.292206974487115 7.816970387085977 0.5
A 18.318575165546626 10.151388402483878 26.32698618337908 2.5
E 16.758109196948688 8.204914976211263 26.488810661327996 0.5
E 19.879041134144565 12.097861828756493 26.165161705430165 0.5
E 19.710230083783518 9.188708100397387 28.16724247654124 0.5
E 16.926920247309734 11.11406870457037 24.48672989021692 0.5
P 19.68906505948819 8.91264394264141 24.64256651660514 0.5
P 16.948085271605063 11.390132862326347 28.01140585015302 0.5
A 16.410297501115064 15.136354648673887 30.32700676422876 2.5
E 17.785385131454184 13.179034039584039 29.60035000748554 0.5
E 15.035209870775944 17.093675257763735 31.053663520971977 0.5
E 18.356747036701783 16.65292698833005 29.92533208989123 0.5
E 14.463847965528347 13.619782309017722 30.728681438566287 0.5
P 15.655004038742542 15.481179780910587 27.968908502095616 0.5
P 17.16559096348759 14.791529516437187 32.6851050263619 0.5
A 13.11746165529407 3.2854086912935427 27.074056240824422 2.5
E 14.497034821659009 1.3243074305154972 27.781770677315915 0.5
E 11.737888488929132 5.246509952071588 26.36634180433293 0.5
E 15.178274499818738 4.439476541136775 26.254801812824024 0.5
E 11.056648810769403 2.1313408414503106 27.89331066882482 0.5
P 12.801505489844088 2.2499333207844847 24.820622758650796 0.5
P 13.433417820744053 4.320884061802601 29.32748972299805 0.5
A 25.58572191047828 33.363878585051374 29.662054065048927 2.5
E 24.016037859094077 31.46478215962283 30.085757671070702 0.5
E 27.155405961862485 35.26297501047992 29.238350459027153 0.5
E 24.363192847932808 33.902918995342816 27.549032974925645 0.5
E 26.808250973023753 32.82483817475993 31.77507515517221 0.5
P 24.07194693708791 34.897784776119984 30.929183548148277 0.5
P 27.099496883868653 31.829972393982764 28.394924581949578 0.5
A 32.09251638801883 18.473549268424964 35.521549428884256 2.5
E 30.981679263639116 16.23523305888184 35.59888912889366 0.5
E 33.20335351239854 20.71186547796809 35.44420972887485 0.5
E 29.893666311340148 19.54709514860171 35.00914569797773 0.5
E 34.29136646469751 17.40000338824822 36.033953159790784 0.5
P 31.666958843859174 18.769251465327986 37.967251983848115 0.5
P 32.51807393217848 18.177847071521942 33.0758468739204 0.5
A 5.330376822303855 11.354516197660066 21.176054473131035 2.5
E 3.5699906514460142 12.434763323436206 22.584637689240843 0.5
E 7.090762993161695 10.274269071883927 19.767471257021228 0.5
E 3.55528964492255 10.271743359208031 19.788009627670924 0.5
E 7.105463999685159 12.437289036112102 22.564099318591147 0.5
P 5.320079145365279 13.332057379927656 19.64660201218733 0.5
P 5.34067449924243 9.376975015392476 22.70550693407474 0.5
70
Properties=species:S:1:pos:R:3:radius:R:1
A 13.701470680642597 13.556163338495088 40.01766829163056 2.5
E 12.666344141096776 12.161607217563974 38.21941183808963 0.5
E 14.736597220188418 14.950719459426201 41.815924745171486 0.5
E 14.192716240030318 11.490251002401596 41.33701813907767 0.5
E 13.210225121254876 15.62207567458858 38.69831844418344 0.5
P 15.92344971913731 13.363239920656712 38.888248215954626 0.5
P 11.479491642147885 13.749086756333464 41.14708836730649 0.5
A 24.637245729188212 26.967860908272492 19.02402142569174 2.5
E 22.311865232113398 27.26781156705512 19.89156689776776 0.5
E 26.962626226263026 26.667910249489864 18.15647595361572 0.5
E 23.959168628235577 27.999144684853167 16.84993191113057 0.5
E 25.315322830140847 25.936577131691816 21.198110940252906 0.5
P 25.25596779036545 29.22540013815467 19.901916428841446 0.5
P 24.018523668010975 24.710321678390315 18.146126422542032 0.5
A 3.4038593166065265 16.562839631573123 22.28479130718615 2.5
E 2.0493083248396013 14.750168574944647 21.22205180422029 0.5
E 4.758410308373452 18.375510688201597 23.347530810152012 0.5
E 1.305278211869131 17.666354456176364 23.077389804989124 0.5
E 5.5024404213439215 15.459324806969882 21.492192809383177 0.5
P 3.509447940718671 15.241295582991404 24.404313038642524 0.5
P 3.298270692494382 17.884383680154844 20.165269575729777 0.5
A 7.555821710761732 39.5568120253265 6.006316733345127 2.5
E 6.646136617111584 40.061088939399106 3.7329540644504107 0.5
E 8.465506804411879 39.052535111253896 8.279679402239843 0.5
E 9.463591962561841 41.11770714396494 5.589160773352683 0.5
E 5.648051458961624 37.99591690668806 6.423472693337571 0.5
P 6.220574281729476 41.44342571724758 6.959103740350707 0.5
P 8.891069139793988 37.67019833340542 5.053529726339547 0.5
A 18.49086872556708 10.145652436223624 26.229256240103847 2.5
E 18.257194545226014 7.9028629751122725 25.149769412684844 0.5
E 18.724542905908145 12.388441897334976 27.30874306752285 0.5
E 19.26707808143152 9.049826641219175 28.337967899594716 0.5
E 17.714659369702638 11.241478231228074 24.12054458061298 0.5
P 20.855799044479625 10.283714958770762 25.43048009714671 0.5
P 16.125938406654534 10.007589913676487 27.028032383060985 0.5
A 16.84171741548861 15.31192908426519 30.37757495245178 2.5
E 19.251350224071118 15.909717109920216 30.671376252970248 0.5
E 14.432084606906102 14.714141058610164 30.083773651933313 0.5
E 16.91136186369895 16.18248864839105 28.035081474095318 0.5
E 16.77207296727827 14.441369520139329 32.72006843080825 0.5
P 17.504151848950787 13.045924776746656 29.555136444311998 0.5
P 16.179282982026432 17.577933391783723 31.200013460591563 0.5
A 13.164527040157623 4.308425761820926 27.651566110625524 2.5
E 13.702032050479307 3.5739641703195497 29.98001077058333 0.5
E 12.627022029835938 5.042887353322302 25.323121450667717 0.5
E 15.59829179459507 4.659654684499859 27.200536883269354 0.5
E 10.730762285720175 3.957196839141993 28.102595337981693 0.5
P 13.359148426276397 1.9446989555929437 26.861048494387816 0.5
P 12.969905654038849 6.672152568048908 28.44208372686323 0.5
A 25.485726951094712 33.65272842920197 29.364052815194132 2.5
E 25.9648298908108 31.8287261096809 31.00523407012563 0.5
E 25.006624011378623 35.47673074872304 27.722871560262632 0.5
E 23.053257786546446 33.08034341542404 29.43800658132999 0.5
E 27.918196115642978 34.225113442979904 29.290099049058274 0.5
P 25.16392866539598 35.2637501343275 31.24847711161391 0.5
P 25.807525236793445 32.04170672407644 27.479628518774355 0.5
A 32.538099170228534 18.281588444476963 35.52968243269293 2.5
E 34.6909760337587 17.602544098085758 36.60393565522104 0.5
E 30.38522230669837 18.960632790868168 34.455429210164816 0.5
E 32.93245047679623 16.629622237058616 33.69515396560457 0.5
E 32.14374786366084 19.93355465189531 37.36421089978129 0.5
P 31.329956687949956 16.532329622808952 36.84516155351993 0.5
P 33.746241652507116 20.030847266144974 34.21420331186593 0.5
A 6.130163683562492 11.157084840498392 21.697555865862427 2.5
E 7.153678909112339 11.854031737586379 23.869348122435046 0.5
E 5.106648458012645 10.460137943410405 19.525763609289807 0.5
E 4.136081835753169 10.274904607903933 22.920419562869846 0.5
E 8.124245531371816 12.039265073092851 20.474692168855007 0.5
P 5.022890380666266 13.390025291979516 21.502818163210193 0.5
P 7.237436986458719 8.924144389017268 21.89229356851466 0.5
70
Properties=species:S:1:pos:R:3:radius:R:1
A 13.719379692290374 14.113489309294803 39.65806740066847 2.5
E 14.045694310123753 12.497674080020047 37.77853024619883 0.5
E 13.393065074456995 15.729304538569558 41.53760455513812 0.5
E 11.617056088907486 12.92887890827793 40.311469011059565 0.5
E 15.821703295673263 15.298099710311675 39.00466579027738 0.5
P 15.03229790636438 12.618216978698715 41.17147627486814 0.5
P 12.406461478216368 15.60876163989089 38.1446585264688 0.5
A 24.36288626328157 26.866924915491655 19.355504273686773 2.5
E 21.883293063100254 27.152498092624743 19.49715709616637 0.5
E 26.842479463462887 26.581351738358567 19.213851451207177 0.5
E 24.06699486606243 25.218367523801998 17.499512138100837 0.5
E 24.65877766050071 28.515482307181312 21.21149640927271 0.5
P 24.48148576861792 28.724532647712657 17.686604135713722 0.5
P 24.244286757945222 25.009317183270653 21.024404411659823 0.5
A 3.555020661493533 16.71962793238481 22.475886774486032 2.5
E 3.107846347160672 16.020577902311132 20.117632295415856 0.5
E 4.002194975826394 17.41867796245849 24.834141253556208 0.5
E 1.2704403810644704 17.725851662401993 22.610819155420316 0.5
E 5.839600941922596 15.713404202367627 22.340954393551748 0.5
P 2.643577808169627 14.540443942767615 23.29468410259628 0.5
P 4.466463514817439 18.898811922002004 21.657089446375785 0.5
A 7.077577361738924 39.513346325657324 6.046247239502214 2.5
E 8.209580528576588 37.37956050090947 5.401633491297544 0.5
E 5.945574194901261 41.64713215040518 6.690860987706883 0.5
E 9.283952798911013 40.4831569090779 6.710607730898988 0.5
E 4.871201924566835 38.54353574223675 5.3818867481054395 0.5
P 7.394557267273992 40.38307357393141 3.7239427260724165 0.5
P 6.760597456203856 38.643619077383235 8.36855175293201 0.5
A 19.110617956288593 10.211500073837033 26.09636001039399 2.5
E 19.48671491948756 10.648447130315077 23.66374241938037 0.5
E 18.734520993089625 9.77455301735899 28.52897760140761 0.5
E 20.76370028422956 8.337797506915116 26.015381570295922 0.5
E 17.457535628347625 12.08520264075895 26.17733845049206 0.5
P 20.94797200255268 11.807844635811866 26.667161331460782 0.5
P 17.273263910024504 8.6151555118622 25.525558689327198 0.5
A 17.423347802964273 15.091978457604204 30.5613367352698 2.5
E 15.535926162966799 16.000030955774278 29.196389771671424 0.5
E 19.310769442961746 14.183925959434132 31.92628369886818 0.5
E 16.550154130887375 12.77350276911632 30.22636913544023 0.5
E 18.29654147504117 17.41045414609209 30.896304335099373 0.5
P 18.81085360976805 14.868123275716874 28.493797982639496 0.5
P 16.035841996160496 15.315833639491535 32.62887548790011 0.5
A 13.312537352278246 4.917593600734864 28.388583285128924 2.5
E 12.442664335638389 2.6887095456715713 29.113425891495353 0.5
E 14.182410368918104 7.146477655798156 27.663740678762494 0.5
E 14.430011740227789 5.2028046863396 30.606669313425066 0.5
E 12.195062964328704 4.632382515130128 26.170497256832782 0.5
P 15.372773243431553 3.8218151077307487 27.49153391799746 0.5
P 11.25230146112494 6.013372093738979 29.285632652260386 0.5
A 25.36750186329677 33.64669246159881 29.02220170794063 2.5
E 27.14968105494257 35.20656867741988 29.822591313183942 0.5
E 23.58532267165097 32.08681624577774 28.22181210269732 0.5
E 26.132751545711827 31.927753270168903 30.66830042300332 0.5
E 24.602252180881713 35.365631653028714 27.376102992877943 0.5
P 23.790089345142604 34.575150456062275 30.725062682914366 0.5
P 26.944914381450936 32.718234467135346 27.319340732966896 0.5
A 33.23449182065509 18.541279568462457 35.340412571814205 2.5
E 32.80780482990376 20.923509134847695 35.96724628578063 0.5
E 33.661178811406415 16.15905000207722 34.71357885784778 0.5
E 35.61108799742917 18.772078111614142 36.081035718241075 0.5
E 30.857895643881005 18.31048102531077 34.599789425387335 0.5
P 32.58662700106094 17.818981620576388 37.64444313802056 0.5
P 33.882356640249235 19.263577516348526 33.03638200560785 0.5
A 6.473464180079173 10.572835055763623 22.18010387971651 2.5
E 7.827741557832461 12.450678318027654 23.12330983096839 0.5
E 5.119186802325885 8.694991793499591 21.236897928464625 0.5
E 5.878191342132771 9.839503270386919 24.494812228723173 0.5
E 7.068737018025574 11.306166841140326 19.865395530709844 0.5
P 4.458127227480271 12.051323870373833 22.13022610346718 0.5
P 8.488801132678073 9.094346241153412 22.229981655965837 0.5
70
Properties=species:S:1:pos:R:3:radius:R:1
A 13.772446203842065 14.178023751327371 39.302096659479716 2.5
E 14.130754339532833 13.318566939637135 36.981978285616705 0.5
E 13.414138068151297 15.037480563017608 41.62221503334273 0.5
E 13.987872494493258 16.524279016647228 38.4662272060034 0.5
E 13.557019913190873 11.831768486007514 40.13796611295603 0.5
P 11.307652745315822 14.258150019166184 38.89176388232421 0.5
P 16.237239662368307 14.097897483488559 39.71242943663522 0.5
A 24.298482313969917 26.487840102308958 19.59240791075808 2.5
E 22.83671631459085 24.463086413824882 19.475734588918176 0.5
E 25.760248313348985 28.512593790793034 19.709081232597985 0.5
E 24.825115613552057 25.970009930729596 21.980819366343784 0.5
E 23.771849014387776 27.00567027388832 17.203996455172376 0.5
P 26.25702706220271 25.11589826156937 18.863108209128136 0.5
P 22.339937565737124 27.859781943048546 20.321707612388025 0.5
A 4.136313432442653 16.584718596281153 22.728460331734315 2.5
E 3.6740773631658485 18.37174398902287 21.042376685542493 0.5
E 4.598549501719456 14.797693203539435 24.414543977926137 0.5
E 1.7181316467387355 16.55717770056927 23.36220976988229 0.5
E 6.55449521814657 16.612259491993036 22.09471089358634 0.5
P 3.701877398544662 14.83663915164502 20.994827271455616 0.5
P 4.570749466340644 18.332798040917286 24.462093392013013 0.5
A 6.366398414821737 0.30211897747286964 6.126894817154726 2.5
E 4.638307886818216 -0.6474079829909382 7.663807852552822 0.5
E 8.094488942825258 1.2516459379366776 4.58998178175663 0.5
E 7.621662582820065 -1.8585421727428904 6.20341450408227 0.5
E 5.1111342468234096 2.46278012768863 6.050375130227183 0.5
P 5.06716210238135 -0.5224669460671725 4.1566047219820295 0.5
P 7.665634727262124 1.1267049010129118 8.097184912327423 0.5
A 19.745646265489267 10.332134480122388 25.635776010072707 2.5
E 21.041402345089555 12.463878700980855 25.47242742876033 0.5
E 18.44989018588898 8.200390259263921 25.799124591385084 0.5
E 19.870140911894715 10.447586354273795 28.130003735797175 0.5
E 19.621151619083818 10.21668260597098 23.14154828434824 0.5
P 17.611280489621265 11.633033185476805 25.68209332014058 0.5
P 21.88001204135727 9.031235774767971 25.589458700004833 0.5
A 18.138819008575336 14.805436217782734 30.99351780818534 2.5
E 15.669219838519705 14.422155850844184 30.92889506002374 0.5
E 20.608418178630966 15.188716584721284 31.05814055634694 0.5
E 18.076286717751362 15.607445027262674 28.6264792402442 0.5
E 18.20135129939931 14.003427408302795 33.36055637612648 0.5
P 17.755192038896702 17.14207440754083 31.795360884041937 0.5
P 18.52244597825397 12.46879802802464 30.191674732328746 0.5
A 13.2769931878508 5.218096006716204 28.891378331812444 2.5
E 14.944595067608132 4.6796145951166075 27.10836354219654 0.5
E 11.60939130809347 5.7565774183158 30.67439312142835 0.5
E 14.570255290970383 3.8305877076886734 30.51996479029783 0.5
E 11.983731084731218 6.605604305743734 27.262791873327057 0.5
P 14.617357729034303 7.226791725208422 29.53834386972502 0.5
P 11.936628646667298 3.209400288223986 28.24441279389987 0.5
A 25.623900697135873 33.96403059898211 28.812641861149007 2.5
E 23.6268115103296 35.34263468954203 28.211737924205746 0.5
E 27.620989883942148 32.585426508422195 29.41354579809227 0.5
E 27.126981972053326 35.76138787718551 27.940716694931865 0.5
E 24.12081942221842 32.16667332077871 29.68456702736615 0.5
P 25.672700911633086 35.02183850970208 31.07729657281794 0.5
P 25.57510048263866 32.90622268826215 26.547987149480075 0.5
A 33.35143137994539 18.642662640759163 34.836539950873124 2.5
E 33.02400591838538 16.65738782781983 33.35280261420178 0.5
E 33.6788568415054 20.627937453698497 36.32027728754447 0.5
E 34.2426200291728 19.94488708844854 32.8974694830123 0.5
E 32.46024273071798 17.340438193069787 36.77561041873395 0.5
P 31.038732662297086 19.425539007084307 34.29939077565352 0.5
P 35.66413009759369 17.85978627443402 35.37368912609273 0.5
A 6.361485816307975 9.950242364097228 22.58207034359152 2.5
E 5.604465577093503 12.319289859733148 22.836106405682244 0.5
E 7.118506055522447 7.581194868461308 22.3280342815008 0.5
E 8.675468814242803 10.617739584688714 23.252838668553956 0.5
E 4.047502818373147 9.282745143505743 21.911302018629087 0.5
P 5.793680354296616 9.511994233552967 24.976968156314697 0.5
P 6.929291278319334 10.38849049464149 20.187172530868345 0.5
70
Properties=species:S:1:pos:R:3:radius:R:1
A 13.779799353513543 13.758904411778202 38.93081051470435 2.5
E 16.06072278535106 12.862452634580649 38.43708740480001 0.5
E 11.498875921676024 14.655356188975755 39.424533624608685 0.5
E 14.60450743905473 14.654763478164922 41.11422369292221 0.5
E 12.955091267972355 12.863045345391482 36.747397336486486 0.5
P 14.385806673384561 15.91385469991289 37.817731728665066 0.5
P 13.173792033642524 11.603954123643515 40.04388930074363 0.5
A 24.254309511694714 26.027164138591317 19.804223633255003 2.5
E 23.773737241541717 23.633454885272936 20.342002680576204 0.5
E 24.73488178184771 28.420873391909698 19.2664445859338 0.5
E 23.65549978776671 26.673033155966912 22.143941592096045 0.5
E 24.853119235622717 25.38129512121572 17.46450567441396 0.5
P 26.633485252931372 25.70621363933639 20.50172888007308 0.5
P 21.875133770458056 26.348114637846244 19.106718386436924 0.5
A 4.646708428592828 16.343715705389332 23.142089033108473 2.5
E 3.371069581658605 16.69412023417757 25.26340046672609 0.5
E 5.922347275527051 15.993311176601093 21.020777599490856 0.5
E 4.635273455663286 13.876069207801798 23.5428258598887 0.5
E 4.65814340152237 18.811362202976866 22.741352206328244 0.5
P 2.4966817372268255 16.148940375461542 21.881355993458484 0.5
P 6.79673511995883 16.538491035317122 24.40282207275846 0.5
A 5.898672531006176 1.6738528584203056 6.132809893514331 2.5
E 4.764467174041003 0.19427498317225855 7.798471179402867 0.5
E 7.03287788797135 3.153430733668353 4.467148607625795 0.5
E 4.541210044718133 0.6507256508074108 4.299641511896647 0.5
E 7.25613501729422 2.6969800660332 7.965978275132015 0.5
P 4.132073027283824 3.409957702062701 6.472023934098186 0.5
P 7.665272034728528 -0.06225198522208997 5.793595852930475 0.5
A 20.533366480924887 10.41488150798856 25.548283784728877 2.5
E 20.203218307697732 12.787599108721604 24.833291917021356 0.5
E 20.86351465415204 8.042163907255517 26.2632756524364 0.5
E 18.097762870825225 9.971178465604206 25.20048691204331 0.5
E 22.96897009102455 10.858584550372916 25.896080657414444 0.5
P 20.99035361223797 9.764236599185004 23.178088863532786 0.5
P 20.076379349611802 11.065526416792117 27.91847870592497 0.5
A 18.86599965837553 14.822685093469541 31.790477995920394 2.5
E 18.44901377207896 12.990049002235208 30.14197330143672 0.5
E 19.282985544672098 16.655321184703876 33.43898269040407 0.5
E 16.414256491407695 15.304066588419929 31.8754915215841 0.5
E 21.317742825343363 14.341303598519154 31.70546447025669 0.5
P 18.610895338819965 13.191821269165201 33.668030917336836 0.5
P 19.121103977931092 16.45354891777388 29.912925074503953 0.5
A 13.196820092391164 5.464901372205518 29.350272719969595 2.5
E 13.0849398032063 7.885654526430866 29.96463170883308 0.5
E 13.308700381576028 3.044148217980171 28.735913731106113 0.5
E 15.28044320177699 5.2163170637946115 30.709213697217184 0.5
E 11.113196983005338 5.713485680616425 27.991331742722007 0.5
P 11.819867827814548 4.892048853735608 31.3567229319503 0.5
P 14.57377235696778 6.037753890675428 27.34382250798889 0.5
A 25.74470443919579 33.82551522232006 28.8363905342842 2.5
E 24.523390228066017 32.984391851558506 30.849076071781845 0.5
E 26.966018650325562 34.66663859308161 26.823704996786553 0.5
E 25.38656111008625 36.1782042222178 29.602280751988722 0.5
E 26.102847768305327 31.47282622242231 28.070500316579675 0.5
P 27.896476953544788 33.73969013904095 30.106236627940174 0.5
P 23.59293192484679 33.91134030559916 27.566544440628224 0.5
A 33.18253808906419 19.110132057959657 34.31757971333562 2.5
E 34.901393694392425 17.930644774160186 35.69755984195662 0.5
E 31.46368248373595 20.289619341759128 32.93759958471462 0.5
E 33.22970688212292 17.239370143806333 32.65986292041936 0.5
E 33.13536929600546 20.98089397211298 35.97529650625188 0.5
P 31.36779003134519 17.944344938494645 35.58155355764427 0.5
P 34.99728614678318 20.27591917742467 33.05360586902697 0.5
A 6.478384651729883 9.933290657077002 22.504922161562423 2.5
E 4.840052238477303 9.043194506007218 24.170333745987815 0.5
E 8.116717064982463 10.823386808146786 20.83951057713703 0.5
E 5.0376473514254165 11.947798653172256 22.16428516242514 0.5
E 7.919121952034349 7.918782660981749 22.845559160699704 0.5
P 7.6990987604379555 11.116289547829064 24.338053550547407 0.5
P 5.25767054302181 8.75029176632494 20.671790772577438 0.5
70
Properties=species:S:1:pos:R:3:radius:R:1
A 13.686857481866406 13.473407112791266 38.502308635037004 2.5
E 14.557986961834384 11.350696501567093 37.50971955080976 0.5
E 12.815728001898428 15.59611772401544 39.494897719264245 0.5
E 11.836587081504439 12.200516205012857 39.60060193941406 0.5
E 15.537127882228374 14.746298020569675 37.404015330659945 0.5
P 15.124784070630637 13.121486101921764 40.516885197849525 0.5
P 12.248930893102175 13.825328123660768 36.48773207222448 0.5
A 24.320467160273637 25.80009519344535 19.730167251172027 2.5
E 23.670472045473097 23.709482826042542 20.937166124409888 0.5
E 24.970462275074176 27.89070756084816 18.523168377934166 0.5
E 23.60882297282248 27.160477891378996 21.703216025437218 0.5
E 25.032111347724793 24.439712495511706 17.757118476906836 0.5
P 26.62721138129209 25.630687860591046 20.67897295012876 0.5
P 22.013722939255185 25.969502526299657 18.781361552215294 0.5
A 4.961845375744767 16.06843275212093 23.679621899422585 2.5
E 3.9735057250930024 14.007810715449299 24.69304262001819 0.5
E 5.9501850263965315 18.129054788792562 22.66620117882698 0.5
E 6.597537833010659 14.662326047469314 22.41574923163641 0.5
E 3.3261529184788756 17.474539456772547 24.94349456720876 0.5
P 3.350108759484927 15.905029089014091 21.77551992665688 0.5
P 6.573581992004607 16.23183641522777 25.58372387218829 0.5
A 5.761706725250519 2.81073664834831 5.905860127588043 2.5
E 3.599011344063077 1.5566460841146623 5.908214886694776 0.5
E 7.924402106437961 4.064827212581958 5.9035053684813095 0.5
E 5.0446605464376555 4.051138850336271 7.954578545222127 0.5
E 6.478752904063383 1.570334446360349 3.857141709953959 0.5
P 6.79058643913363 1.0391104930877357 7.338601311597305 0.5
P 4.732827011367409 4.582362803608884 4.473118943578781 0.5
A 21.7022844600757 10.73555778583754 25.52539923925053 2.5
E 22.11537877996595 12.880955282326056 24.31023560214787 0.5
E 21.289190140185447 8.590160289349026 26.740562876353188 0.5
E 22.98752121878492 9.496723396325367 23.775126166434184 0.5
E 20.417047701366478 11.974392175349715 27.275672312066874 0.5
P 23.806451648523037 11.071055829683042 26.833038908899173 0.5
P 19.59811727162836 10.40005974199204 24.217759569601885 0.5
A 19.423507836764692 15.009909303224779 32.07621568427049 2.5
E 19.88484859762296 12.95700623621569 30.726121724638283 0.5
E 18.962167075906425 17.062812370233868 33.42630964390269 0.5
E 17.780266663554734 13.730845516153398 33.459600762717606 0.5
E 21.06674900997465 16.28897309029616 30.692830605823364 0.5
P 21.25023254208792 14.377782080217203 33.66161532628333 0.5
P 17.596783131441462 15.642036526232355 30.49081604225764 0.5
A 13.544089907973703 5.363936064629923 29.638894441910235 2.5
E 11.477705215186885 6.7367738367702685 29.33007288696541 0.5
E 15.61047460076052 3.991098292489577 29.94771599685506 0.5
E 13.926978635915022 6.440463235210946 31.862514344909346 0.5
E 13.161201180032384 4.287408894048899 27.415274538911124 0.5
P 12.190040232581664 3.573292129509647 30.738959791871395 0.5
P 14.898139583365742 7.154579999750198 28.538829091949076 0.5
A 25.7533450424563 33.76616841608509 29.050792680409884 2.5
E 27.472931959721723 32.287847021695306 30.10321212571664 0.5
E 24.033758125190875 35.24448981047487 27.998373235103127 0.5
E 25.71078177083053 35.182790694963494 31.1102512711309 0.5
E 25.79590831408207 32.34954613720668 26.99133408968887 0.5
P 27.567514053843837 35.20065340167243 28.101559503447362 0.5
P 23.93917603106876 32.33168343049774 30.000025857372407 0.5
A 33.81628456311236 19.696048885618996 33.96845469079362 2.5
E 36.206413086544025 19.767415030794908 33.23893943063599 0.5
E 31.4261560396807 19.624682740443085 34.697969950951254 0.5
E 34.4128301536553 18.060853409331802 35.762965519051676 0.5
E 33.219738972569424 21.33124436190619 32.173943862535566 0.5
P 34.242217656313514 21.585769136781686 35.54881489418507 0.5
P 33.39035146991121 17.806328634456307 32.38809448740217 0.5
A 6.645868820778472 9.774230701115767 21.992704042716575 2.5
E 8.397866311960952 8.696685931763705 23.41376071327334 0.5
E 4.893871329595992 10.85177547046783 20.57164737215981 0.5
E 6.276770821891905 7.606211208261796 20.80381458367309 0.5
E 7.014966819665039 11.942250193969738 23.18159350176006 0.5
P 4.9010847487197555 9.150861830663617 23.671137774873724 0.5
P 8.390652892837188 10.397599571567918 20.314270310559426 0.5
70
Properties=species:S:1:pos:R:3:radius:R:1
A 13.406138144892317 13.442939182913454 38.1636078439278 2.5
E 14.807328588748081 11.464874761614542 38.77510313028641 0.5
E 12.004947701036553 15.421003604212366 37.55211255756919 0.5
E 12.060565438162314 12.011753238386236 36.61727641661633 0.5
E 14.75171085162232 14.874125127440673 39.70993927123927 0.5
P 11.832575489339419 12.905381802367666 40.03040527045007 0.5
P 14.979700800445215 13.980496563459242 36.29681041740553 0.5
A 24.44771501874676 25.308304382833846 19.497006646574008 2.5
E 23.31272560132674 23.257468227647983 18.627598752127 0.5
E 25.58270443616678 27.35914053801971 20.366414541021015 0.5
E 24.5568992279302 24.282494581970795 21.77424028871924 0.5
E 24.33853080956332 26.334114183696897 17.219773004428774 0.5
P 26.672547109222194 24.312420194267965 18.941725769760364 0.5
P 22.222882928271325 26.304188571399727 20.05228752338765 0.5
A 5.122655280396132 15.729282290051597 23.8227703927502 2.5
E 5.201269686952839 17.923437292210846 22.627151891061153 0.5
E 5.044040873839425 13.535127287892347 25.018388894439248 0.5
E 3.8437006648647225 14.736970088266856 21.917621688422923 0.5
E 6.401609895927542 16.721594491836335 25.72791909707748 0.5
P 7.269302635341168 15.05771671567442 22.731484539813945 0.5
P 2.976007925451096 16.400847864428773 24.914056245686456 0.5
A 5.304734807172497 3.5881198852592227 5.739918343330406 2.5
E 3.038779597377229 4.505598117735575 6.263063332920642 0.5
E 7.570690016967765 2.67064165278287 5.21677335374017 0.5
E 4.248636564176799 1.6078414414537692 4.638485737066878 0.5
E 6.3608330501681944 5.568398329064676 6.841350949593934 0.5
P 5.2945618851389415 4.807435667955049 3.557450580973816 0.5
P 5.314907729206052 2.3688041025633964 7.922386105686996 0.5
A 22.65285690833269 10.977322597146452 25.496456456260155 2.5
E 20.469735222013902 11.571322816432343 24.432904180998435 0.5
E 24.83597859465148 10.383322377860562 26.560008731521876 0.5
E 21.54532926954416 10.9184671548047 27.73697393359161 0.5
E 23.760384547121223 11.036178039488204 23.2559389789287 0.5
P 22.14554809503889 8.549628263751796 25.181912355124297 0.5
P 23.16016572162649 13.405016930541109 25.811000557396014 0.5
A 19.875341767588754 15.34487172665457 32.35570961787311 2.5
E 21.624217574230723 13.567114071068975 32.53180939342378 0.5
E 18.126465960946785 17.122629382240167 32.17960984232244 0.5
E 18.63295911337708 14.311633844430258 34.26330098377157 0.5
E 21.11772442180043 16.378109608878884 30.44811825197465 0.5
P 21.159054645710707 16.76684120478805 33.96197362164099 0.5
P 18.5916288894668 13.922902248521089 30.749445614105227 0.5
A 13.495672311443958 5.53968953898612 29.8558649827295 2.5
E 11.047890815771478 5.898943340702023 30.21545148886333 0.5
E 15.943453807116438 5.180435737270217 29.49627847659567 0.5
E 13.339614294476737 3.3253628553923327 31.005822909639114 0.5
E 13.651730328411178 7.7540162225799065 28.705907055819885 0.5
P 13.011924810384652 4.436197788099565 27.665364055785695 0.5
P 13.979419812503263 6.6431812898726745 32.046365909673305 0.5
A 25.86706049186851 33.969872681868225 28.948771753814814 2.5
E 27.09324924646075 31.819757815554908 29.30015075115316 0.5
E 24.64087173727627 36.11998754818154 28.597392756476467 0.5
E 25.613604284529657 34.22956081062324 31.4222959656926 0.5
E 26.120516699207364 33.71018455311321 26.475247541937026 0.5
P 28.03090454564721 35.21869938619621 29.039385072286073 0.5
P 23.70321643808981 32.72104597754024 28.858158435343555 0.5
A 34.41996216294102 19.779237826503202 33.805039458027814 2.5
E 34.16918140495061 19.692136098373027 31.319174960437458 0.5
E 34.670742920931424 19.866339554633377 36.29090395561817 0.5
E 36.83471005677786 20.37011252011896 33.54072959128675 0.5
E 32.00521426910418 19.188363132887446 34.06934932476888 0.5
P 33.823219655125506 22.206845781961185 33.78017997362398 0.5
P 35.01670467075653 17.35162987104522 33.82989894243165 0.5
A 6.744594054018165 9.590117370594713 21.647563025049266 2.5
E 9.192838993482216 9.527600365259284 21.145379452603535 0.5
E 4.296349114554116 9.652634375930143 22.149746597494996 0.5
E 6.388434195617212 7.614841023136549 20.15711560684293 0.5
E 7.100753912419118 11.565393718052878 23.138010443255602 0.5
P 7.104103263433279 8.05898217890914 23.590853572839148 0.5
P 6.3850848446030515 11.121252562280286 19.704272477259384 0.5
70
Properties=species:S:1:pos:R:3:radius:R:1
A 13.193479360877964 13.543489163918762 38.059085972267454 2.5
E 13.332512826602269 14.939044511211844 40.12864992828592 0.5
E 13.054445895153659 12.147933816625681 35.98952201624899 0.5
E 13.644713231794443 11.49081485096825 39.41293831232943 0.5
E 12.742245489961485 15.596163476869274 36.70523363220548 0.5
P 10.73847270321961 13.24523853509251 38.425130878335445 0.5
P 15.648486018536317 13.841739792745015 37.69304106619946 0.5
A 24.11627364790112 24.757386428839173 18.742947633712454 2.5
E 23.383615773807847 25.788218115484145 16.586423005210023 0.5
E 24.848931521994395 23.7265547421942 20.899472262214886 0.5
E 22.541518809504645 26.246055458684758 19.989547697295492 0.5
E 25.691028486297597 23.268717398993587 17.496347570129416 0.5
P 22.31811913883474 23.033654850725274 18.529898793919887 0.5
P 25.914428156967503 26.48111800695307 18.95599647350502 0.5
A 5.666564663874764 15.408880623918902 23.993441261835642 2.5
E 6.52443262560283 14.05612855448205 25.91284856589455 0.5
E 4.808696702146698 16.761632693355754 22.074033957776734 0.5
E 7.997277917309209 15.650448678391166 23.121993842123274 0.5
E 3.3358514104403203 15.167312569446638 24.86488868154801 0.5
P 5.380490738978781 13.320410678314554 22.649396993293195 0.5
P 5.952638588770747 17.49735056952325 25.33748553037809 0.5
A 5.340818390597531 3.353741441836606 6.042537156103708 2.5
E 6.283093871242742 4.405935826107129 8.10530323500942 0.5
E 4.39854290995232 2.301547057566083 3.979771077197997 0.5
E 3.5315052975649817 5.0781446317230365 5.989435648685151 0.5
E 7.15013148363008 1.6293382519501751 6.095638663522265 0.5
P 6.785983796340229 4.826602812237333 4.631092387922727 0.5
P 3.895652984854833 1.8808800714358784 7.453981924284689 0.5
A 22.418947132437758 10.737312232305813 25.760526962895632 2.5
E 22.724501369572053 10.255039317881185 23.3265899373785 0.5
E 22.113392895303463 11.219585146730441 28.194463988412764 0.5
E 23.339771772564404 8.482154992282428 26.322975009302823 0.5
E 21.49812249231111 12.992469472329198 25.19807891648844 0.5
P 24.723012797801147 11.702547260049837 25.858520589785755 0.5
P 20.11488146707437 9.77207720456179 25.66253333600551 0.5
A 20.44640204864319 15.747112571434178 32.785101938839446 2.5
E 22.484861412888574 14.510345324536425 33.53682675372932 0.5
E 18.407942684397806 16.983879818331932 32.03337712394957 0.5
E 19.16347433792049 14.804049712978246 34.71246514645256 0.5
E 21.72932975936589 16.690175429890107 30.857738731226338 0.5
P 21.116312422782947 17.704416641322613 34.1887332538998 0.5
P 19.776491674503433 13.789808501545743 31.381470623779094 0.5
A 13.397245416797672 5.546454475333667 30.128772908687615 2.5
E 13.688082972888733 3.3743001379358475 31.33175214811291 0.5
E 13.10640786070661 7.718608812731487 28.925793669262323 0.5
E 15.857470672121345 5.962303472665464 30.284853991728294 0.5
E 10.937020161473999 5.130605478001871 29.972691825646937 0.5
P 13.732961381613155 4.380772209045198 27.942799522521618 0.5
P 13.061529451982189 6.712136741622136 32.31474629485361 0.5
A 25.622645264403026 34.3470455642322 29.079167755199506 2.5
E 25.109996254819386 32.217064368284035 30.283481293228775 0.5
E 26.135294273986666 36.47702676018036 27.87485421717024 0.5
E 23.357131898037252 35.22511344223255 29.667764381457573 0.5
E 27.8881586307688 33.468977686231845 28.49057112894144 0.5
P 26.547112775888063 35.3177035403142 31.1894243542124 0.5
P 24.69817775291799 33.376387588150195 26.968911156186614 0.5
A 34.665523333666385 19.153653418908043 34.0114558830354 2.5
E 33.87221189075082 17.83573774307987 35.98218042643231 0.5
E 35.45883477658195 20.471569094736214 32.0407313396385 0.5
E 34.55102234555454 17.09924874597927 32.5914872342367 0.5
E 34.78002432177823 21.208058091836815 35.431424531834104 0.5
P 32.29749747268809 19.694504332983414 33.41990384772219 0.5
P 37.03354919464468 18.612802504832672 34.60300791834862 0.5
A 7.309042099489075 9.591418585193386 21.348998617611773 2.5
E 5.472300985925774 7.956580507974117 20.897682162092927 0.5
E 9.145783213052376 11.226256662412656 21.80031507313062 0.5
E 6.54035300297276 9.800870691819462 23.71864983412628 0.5
E 8.07773119600539 9.38196647856731 18.979347401097268 0.5
P 8.820828841938228 7.71167544414838 22.00555521764796 0.5
P 5.797255357039921 11.471161726238392 20.692442017575587 0.5
70
Properties=species:S:1:pos:R:3:radius:R:1
A 13.05530484670699 13.886785445892608 38.12563482599388 2.5
E 13.604763424616126 16.170291732438088 38.98219440388066 0.5
E 12.505846268797855 11.603279159347126 37.26907524810709 0.5
E 12.521760650720815 13.142571150049617 40.45189269493116 0.5
E 13.588849042693166 14.630999741735598 35.799376957056595 0.5
P 10.675509506327533 14.580863338618226 37.80186018718158 0.5
P 15.435100187086448 13.19270755316699 38.44940946480617 0.5
A 23.804016467252257 24.495250583923596 18.021632810961805 2.5
E 25.740608093503685 24.834280546904115 16.47739463071436 0.5
E 21.86742484100083 24.156220620943078 19.56587099120925 0.5
E 22.282361476561338 25.5577662495464 16.34663234839136 0.5
E 25.325671457943177 23.432734918300792 19.69663327353225 0.5
P 23.374855701992985 22.257814742495466 16.992214580574117 0.5
P 24.23317723251153 26.732686425351726 19.051051041349492 0.5
A 6.0820115604305105 15.429200504454775 24.415293107037147 2.5
E 4.049579052621446 16.62596311043443 25.24413408462538 0.5
E 8.114444068239575 14.23243789847512 23.586452129448915 0.5
E 5.1932975588673225 13.28181184359146 25.33665588174691 0.5
E 6.9707255619936985 17.57658916531809 23.493930332327384 0.5
P 4.929013067532025 14.974798475273444 22.244092224748872 0.5
P 7.235010053328996 15.883602533636106 26.586493989325422 0.5
A 5.6235146978142545 2.699617749057706 6.425320888329304 2.5
E 7.557549350098444 2.6065015421343483 8.006725117415552 0.5
E 3.6894800455300647 2.7927339559810638 4.843916659243054 0.5
E 7.089118124428555 3.7520295962676706 4.694877043603845 0.5
E 4.157911271199954 1.6472059018477414 8.155764733054761 0.5
P 6.22477716933571 0.43383782244082214 5.556571923161808 0.5
P 5.022252226292799 4.9653976756745895 7.294069853496799 0.5
A 21.963008725559025 10.171759913525758 25.63798966555412 2.5
E 22.409563683287566 12.617979517517913 25.89605616623558 0.5
E 21.516453767830484 7.725540309533604 25.379923164872658 0.5
E 23.9367165697189 9.971959702655148 24.116622773039598 0.5
E 19.98930088139915 10.371560124396368 27.15935655806864 0.5
P 23.431023035990393 9.696271191491286 27.604927503816473 0.5
P 20.494994415127657 10.64724863556023 23.671051827291766 0.5
A 20.523648659194038 15.842935277225353 33.08389211961 2.5
E 21.784986280804183 15.582436350298952 30.941191087412278 0.5
E 19.262311037583892 16.103434204151753 35.22659315180772 0.5
E 22.594889198146547 15.290594022923191 34.37031419987594 0.5
E 18.45240812024153 16.395276531527514 31.797470039344056 0.5
P 21.131094158074966 18.26720000036642 33.146745266096026 0.5
P 19.91620316031311 13.418670554084287 33.02103897312397 0.5
A 13.594730581899137 5.471666325718914 30.055802040441275 2.5
E 14.499044749033132 7.441274154346463 31.301940431041235 0.5
E 12.690416414765142 3.5020584970913653 28.809663649841315 0.5
E 11.660647625289704 6.851706132351698 29.27810463845314 0.5
E 15.52881353850857 4.09162651908613 30.83349944242941 0.5
P 14.895322371843584 6.1544072235090335 28.03285224808085 0.5
P 12.29413879195469 4.7889254279287945 32.0787518328017 0.5
A 25.121332654695653 34.979347797024936 28.692897693438574 2.5
E 24.78305743115471 32.506409095485196 28.550967951785225 0.5
E 25.459607878236596 37.452286498564675 28.834827435091924 0.5
E 22.6971528735568 35.28043772445722 29.224590503543155 0.5
E 27.545512435834507 34.67825786959265 28.161204883333994 0.5
P 25.63017669942489 34.769779111324326 31.13157739854907 0.5
P 24.612488609966416 35.188916482725546 26.25421798832808 0.5
A 34.706881908307 18.6426289842582 33.90990262762866 2.5
E 35.901827954931186 18.6979407208821 36.10513486077631 0.5
E 33.51193586168281 18.587317247634296 31.714670394481008 0.5
E 35.375340843636586 16.252868108917912 33.60624886020198 0.5
E 34.03842297297741 21.032389859598485 34.21355639505534 0.5
P 32.6151681139659 17.91051999613824 35.066946201604466 0.5
P 36.79859570264809 19.374737972378156 32.752859053652855 0.5
A 8.495472394056536 9.983685408292525 21.190890175469338 2.5
E 7.37679658655163 11.42166330175995 22.902843450417013 0.5
E 9.614148201561443 8.5457075148251 19.478936900521663 0.5
E 10.65042445137051 11.187160018193431 21.588169037232678 0.5
E 6.340520336742562 8.780210798391618 20.793611313706 0.5
P 9.091078025647908 8.330244014948118 22.968918715845952 0.5
P 7.899866762465164 11.637126801636931 19.412861635092725 0.5
70
Properties=species:S:1:pos:R:3:radius:R:1
A 12.742282780097938 14.773904250554283 38.47997147914235 2.5
E 11.856060400090115 16.87990154622849 37.465385216773996 0.5
E 13.62850516010576 12.667906954880076 39.494557741510704 0.5
E 13.636745112910692 16.081876093899773 40.41365883551487 0.5
E 11.847820447285184 13.465932407208795 36.546284122769826 0.5
P 10.582526537288851 14.451437124123203 39.6971271487339 0.5
P 14.902039022907024 15.096371376985363 37.2628158095508 0.5
A 23.74209554812236 24.027690328697496 17.62146694016701 2.5
E 25.719878204326715 24.825258859650173 18.92617388168717 0.5
E 21.764312891918006 23.23012179774482 16.31675999864685 0.5
E 25.269755085781856 22.902229276924558 15.993709661596345 0.5
E 22.214436010462865 25.153151380470433 19.249224218737677 0.5
P 23.67403600202572 21.942691081844924 18.999199148837832 0.5
P 23.810155094219002 26.112689575550068 16.24373473149619 0.5
A 5.930497469022631 15.390428277838474 24.91960336342579 2.5
E 6.78535166870542 17.676927001060257 25.459184576950964 0.5
E 5.075643269339842 13.10392955461669 24.380022149900615 0.5
E 3.5874283210331006 16.178420438326736 25.292558216924316 0.5
E 8.273566617012161 14.602436117350212 24.546648509927262 0.5
P 5.7594674569669575 16.023667524658855 22.507186154222115 0.5
P 6.101527481078305 14.757189031018092 27.332020572629464 0.5
A 5.871788727399037 2.5800187044272556 6.483078069619882 2.5
E 4.755830848256379 0.4277003546122531 7.093130307570583 0.5
E 6.987746606541694 4.732337054242258 5.873025831669182 0.5
E 3.6432001597329027 3.59016476851085 5.970244836215645 0.5
E 8.10037729506517 1.569872640343661 6.995911303024119 0.5
P 5.676773322759186 3.352760996699174 8.85264308068987 0.5
P 6.066804132038887 1.8072764121553373 4.113513058549895 0.5
A 21.424070050942017 9.45696295309213 24.929874234806853 2.5
E 20.10428713292848 10.124186311776342 26.945559239699076 0.5
E 22.743852968955554 8.78973959440792 22.91418922991463 0.5
E 20.87836021091654 11.643993467434187 23.848625743553516 0.5
E 21.969779890967494 7.2699324387500734 26.01112272606019 0.5
P 23.475989596104686 10.467759925270226 25.938792299476404 0.5
P 19.37215050577935 8.446165980914035 23.920956170137302 0.5
A 21.10798690083437 15.86920458477489 33.39774871550308 2.5
E 18.699768146825765 16.527774650875834 33.26825778579335 0.5
E 23.516205654842974 15.210634518673945 33.5272396452128 0.5
E 21.629402927999607 17.40121132034522 31.492209241028092 0.5
E 20.58657087366913 14.337197849204559 35.30328818997806 0.5
P 21.530607013295324 17.7317944027979 35.01086725124078 0.5
P 20.685366788373415 14.006614766751882 31.784630179765372 0.5
A 13.957427784523459 5.310568975596074 30.237412304973414 2.5
E 11.547321757196169 5.896258608668562 30.55103084834946 0.5
E 16.36753381185075 4.724879342523586 29.92379376159737 0.5
E 14.156753677963485 4.822251572014615 32.681142098048134 0.5
E 13.758101891083433 5.798886379177533 27.793682511898695 0.5
P 13.323662745063066 2.9297048956729674 29.81335086168142 0.5
P 14.591192823983851 7.69143305551918 30.661473748265408 0.5
A 24.919660738885415 35.007228622860886 28.48411368595104 2.5
E 25.184799034431283 34.62655255559576 26.02753325452869 0.5
E 24.65452244333955 35.387904690126014 30.94069411737339 0.5
E 22.73506561209287 33.79261685630928 28.436549113533147 0.5
E 27.10425586567796 36.22184038941249 28.531678258368935 0.5
P 26.10593466013208 32.855530691373616 28.94557895593797 0.5
P 23.733386817638753 37.158926554348156 28.02264841596411 0.5
A 34.98396467552275 18.561228455161054 33.6552365981873 2.5
E 35.02225983284801 20.724330738195135 34.908042247144756 0.5
E 34.94566951819749 16.39812617212697 32.402430949229846 0.5
E 35.548561512889385 17.333169084920797 35.758353474255344 0.5
E 34.41936783815611 19.78928782540131 31.552119722119258 0.5
P 32.54885402256208 18.310512088923485 34.16256037206312 0.5
P 37.419075328483416 18.811944821398622 33.14791282431148 0.5
A 9.613726053061757 10.22727073582386 21.528583107008117 2.5
E 7.181678743521095 10.79731492747981 21.62955589402132 0.5
E 12.04577336260242 9.657226544167909 21.427610319994915 0.5
E 10.191845856918027 12.595850748351141 22.081399728183094 0.5
E 9.035606249205488 7.8586907232965775 20.97576648583314 0.5
P 9.583338941532553 9.666130518215601 23.964604100275075 0.5
P 9.644113164590962 10.788410953432118 19.09256211374116 0.5
70
Properties=species:S:1:pos:R:3:radius:R:1
A 12.651727258261491 15.655044441393358 39.124579222587926 2.5
E 10.552327305991195 16.17085863786193 40.38014903551329 0.5
E 14.751127210531788 15.139230244924784 37.86900940966256 0.5
E 13.959806790909644 17.04149335890446 40.7421970190404 0.5
E 11.343647725613339 14.268595523882253 37.506961426135454 0.5
P 13.014284531909315 13.639679681888458 40.558753936307035 0.5
P 12.289169984613668 17.67040920089826 37.690404508868816 0.5
A 23.599563595827245 23.435797850903732 16.858194607448365 2.5
E 22.957519155654566 25.74567693256305 16.149507395093053 0.5
E 24.241608035999924 21.125918769244414 17.566881819803676 0.5
E 25.22542463253663 24.391259501362356 18.499434664177738 0.5
E 21.97370255911786 22.48033620044511 15.216954550718992 0.5
P 21.812287784388644 23.475188999852094 18.605791102990427 0.5
P 25.386839407265846 23.39640670195537 15.110598111906302 0.5
A 5.559809758864387 15.323285277927718 25.02024108252041 2.5
E 7.708185616931942 16.202120326018942 24.09173145375045 0.5
E 3.411433900796831 14.444450229836493 25.94875071129037 0.5
E 6.716107278265256 14.762156848578009 27.164561705095885 0.5
E 4.4035122394635176 15.884413707277428 22.875920459944936 0.5
P 5.014413371729826 17.595461293121428 25.908924905304726 0.5
P 6.105206145998948 13.051109262734009 24.131557259736095 0.5
A 5.01735902681011 2.7382442147044146 6.591502457978733 2.5
E 6.144395552327083 1.7856734412022277 8.609520691697087 0.5
E 3.890322501293136 3.6908149882066015 4.57348422426038 0.5
E 7.126778110689051 2.4553610227670464 5.279889623226678 0.5
E 2.907939942931168 3.021127406641783 7.903115292730789 0.5
P 4.2892520300592025 0.4442115163349163 5.915281946537677 0.5
P 5.745466023561017 5.032276913073913 7.26772296941979 0.5
A 21.00096182395228 8.605041276167952 24.215894721723902 2.5
E 22.65776566118559 9.577383313077034 25.81575471815795 0.5
E 19.344157986718972 7.632699239258871 22.616034725289854 0.5
E 19.1857450257294 9.96227338461911 25.270839734148808 0.5
E 22.816178622175162 7.247809167716795 23.160949709298997 0.5
P 21.45920741354364 10.465813150162775 22.610423135998595 0.5
P 20.54271623436092 6.7442694021731295 25.82136630744921 0.5
A 21.26901828049948 16.132887432734748 33.85714854561356 2.5
E 19.426439572752667 14.492198183395189 34.26093375195421 0.5
E 23.111596988246294 17.773576682074307 33.45336333927291 0.5
E 19.691333898943356 17.589660108897384 32.57702145732127 0.5
E 22.846702662055606 14.676114756572112 35.13727563390585 0.5
P 20.664191282133967 17.331199644592502 35.966231793131456 0.5
P 21.873845278864994 14.934575220876992 31.748065298095668 0.5
A 14.270514372954906 5.366787439592995 30.26729522540753 2.5
E 13.586178122640867 3.885747296393822 32.16155074954781 0.5
E 14.954850623268946 6.847827582792169 28.373039701267253 0.5
E 16.461977217073272 5.793126243417301 31.392340036603763 0.5
E 12.079051528836542 4.940448635768689 29.142250414211297 0.5
P 15.260046837986765 3.398347621213096 29.085741086968778 0.5
P 13.280981907923048 7.335227257972894 31.448849363846282 0.5
A 25.132066613131258 34.959523333288516 28.005854323110515 2.5
E 25.885559695010052 36.901027902913036 26.62281123568033 0.5
E 24.378573531252464 33.018018763663996 29.3888974105407 0.5
E 22.749431274127048 35.617225771380625 27.63105258317792 0.5
E 27.514701952135468 34.30182089519641 28.380656063043112 0.5
P 25.059286005208495 33.528444191851776 25.957265668925494 0.5
P 25.20484722105402 36.390602474725256 30.054442977295537 0.5
A 35.58284598833432 18.618068422824457 33.688657222213436 2.5
E 33.83709252431969 19.856405362497853 34.980503368905424 0.5
E 37.32859945234895 17.379731483151062 32.39681107552145 0.5
E 34.8412739046356 16.47495688658783 34.74086622613324 0.5
E 36.32441807203304 20.761179959061085 32.63644821829363 0.5
P 33.95422212520283 18.266508232968565 31.824793025081885 0.5
P 37.21146985146581 18.96962861268035 35.55252141934499 0.5
A 10.45179563328623 10.564645547815665 21.73711530360995 2.5
E 11.857658498859784 8.623702079105502 21.025576088615765 0.5
E 9.045932767712674 12.505589016525828 22.448654518604137 0.5
E 11.589147742204755 12.009404839948065 20.043273289684937 0.5
E 9.314443524367704 9.119886255683266 23.430957317534965 0.5
P 8.725533838672861 9.935829963506306 20.041647469238036 0.5
P 12.178057427899597 11.193461132125025 23.432583137981865 0.5
70
Properties=species:S:1:pos:R:3:radius:R:1
A 12.479143131749172 15.950340095136852 39.35662727172622 2.5
E 12.858122415960809 16.577319416942085 41.746872370490664 0.5
E 12.100163847537535 15.323360773331618 36.96638217296177 0.5
E 14.923974666524874 16.20691720185575 38.90169106205015 0.5
E 10.03431159697347 15.693762988417955 39.81156348140229 0.5
P 12.838550238948102 13.543876898173975 39.93087583546712 0.5
P 12.119736024550242 18.356803292099727 38.782378707985316 0.5
A 23.287365158788923 23.296737622211257 16.195499176506107 2.5
E 21.66795627860929 22.479925527959725 14.474937384102311 0.5
E 24.906774038968557 24.11354971646279 17.916060968909903 0.5
E 21.730044666548697 25.164780334416427 16.77443726458272 0.5
E 24.84468565102915 21.428694910006087 15.616561088429496 0.5
P 22.190885444775024 21.849936174858662 17.914364444261093 0.5
P 24.383844872802822 24.74353906956385 14.47663390875112 0.5
A 4.859215079644713 15.58778752364311 25.210073720992472 2.5
E 4.269114164331636 17.941351413755193 24.60797910641216 0.5
E 5.449315994957789 13.234223633531027 25.812168335572785 0.5
E 6.614730084828345 15.572610944243957 23.430203855521313 0.5
E 3.1037000744610808 15.602964103042263 26.98994358646363 0.5
P 6.538485152123004 16.43070311051862 26.859178125534687 0.5
P 3.179945007166422 14.7448719367676 23.560969316450258 0.5
A 4.592227521715994 2.9424219603972257 6.690292371699224 2.5
E 3.3734745284039933 1.0813276165520986 7.830892645502693 0.5
E 5.810980515027995 4.803516304242352 5.549692097895755 0.5
E 3.378325469748086 4.6060089371264565 8.10765618494014 0.5
E 5.8061295736839025 1.2788349836679946 5.2729285584583065 0.5
P 6.40636173657469 2.8052862095355073 8.40496751186848 0.5
P 2.7780933068572993 3.079557711258944 4.975617231529969 0.5
A 20.682868000571283 7.440078467503584 23.57012651299537 2.5
E 18.864132682431325 7.994946656595738 21.947066706553912 0.5
E 22.50160331871124 6.88521027841143 25.193186319436826 0.5
E 19.821953674775273 9.190833407374821 25.133355115649984 0.5
E 21.543782326367293 5.689323527632347 22.006897910340754 0.5
P 19.199281681481157 5.743912663918363 24.652712860848766 0.5
P 22.16645431966141 9.136244271088804 22.487540165141972 0.5
A 21.571411963229647 16.39709773630252 34.39163866504608 2.5
E 19.63953947101252 16.29676165815581 35.97524257551008 0.5
E 23.503284455446774 16.49743381444923 32.80803475458208 0.5
E 20.008806036443833 16.083548168381956 32.46551577539687 0.5
E 23.13401789001546 16.710647304223084 36.317761554695295 0.5
P 21.295492787765923 18.875326809628653 34.21205785111415 0.5
P 21.84733113869337 13.918868662976385 34.57121947897801 0.5
A 13.900991925780497 5.083494853741873 30.25774617576756 2.5
E 13.575635802372624 2.839780584640115 31.311259190204087 0.5
E 14.22634804918837 7.32720912284363 29.204233161331036 0.5
E 16.282831246185918 5.094686601365624 31.0171645035374 0.5
E 11.519152605375076 5.072303106118121 29.49832784799772 0.5
P 14.587275281784862 3.980942803536867 28.12153594925494 0.5
P 13.214708569776132 6.186046903946878 32.39395640228018 0.5
A 25.463352143818778 34.47139697809805 27.135168423131795 2.5
E 27.86835234747178 35.15234992831259 27.182887392353503 0.5
E 23.058351940165775 33.79044402788351 27.087449453910086 0.5
E 25.36930168449748 34.975039217636706 24.688231765665076 0.5
E 25.557402603140076 33.96775473855939 29.582105080598513 0.5
P 26.1394649535857 32.119238910674206 26.625046972570775 0.5
P 24.787239334051854 36.82355504552189 27.645289873692814 0.5
A 36.122442592975055 19.104123381555368 33.63973048160505 2.5
E 34.26703254687608 19.65354109333135 35.22263721885243 0.5
E 37.97785263907403 18.554705669779388 32.05682374435767 0.5
E 34.541724761810535 17.746891344596346 32.25797350728146 0.5
E 37.703160424139575 20.46135541851439 35.021487455928636 0.5
P 35.56675860087629 21.130465251981036 32.28505194959597 0.5
P 36.67812658507382 17.0777815111297 34.99440901361413 0.5
A 10.759621016687246 10.957158404169556 21.9275476782389 2.5
E 8.427603771136106 10.50273018993068 21.14960772904127 0.5
E 13.091638262238387 11.411586618408432 22.705487627436526 0.5
E 10.619714285042251 9.007318893613409 23.485928886261007 0.5
E 10.899527748332241 12.906997914725704 20.36916647021679 0.5
P 11.64963319238731 9.459954048986303 20.13415495885817 0.5
P 9.869608840987183 12.45436275935281 23.72094039761963 0.5
70
Properties=species:S:1:pos:R:3:radius:R:1
A 12.502508472959535 15.754779159435182 39.84247040757159 2.5
E 11.78349045980021 14.715741538974841 41.999647711369526 0.5
E 13.22152648611886 16.793816779895522 37.68529310377365 0.5
E 14.193031954952595 13.939437755836448 39.53155893269388 0.5
E 10.811984990966476 17.570120563033917 40.153381882449295 0.5
P 10.80688367555214 14.385495985052074 38.6177581414581 0.5
P 14.198133270366931 17.12406233381829 41.06718267368508 0.5
A 23.137107617666576 23.149787064149685 16.053742766640294 2.5
E 24.62434928973135 21.589202666735844 14.78776940695909 0.5
E 21.649865945601803 24.710371461563525 17.3197161263215 0.5
E 21.224225470980556 21.567823413241673 15.756635210196922 0.5
E 25.049989764352596 24.731750715057697 16.350850323083666 0.5
P 23.752732586104287 22.004375633372806 18.18893328565301 0.5
P 22.521482649228865 24.295198494926563 13.918552247627577 0.5
A 4.28067223039806 15.702158586159847 25.28905069580638 2.5
E 3.282285982834157 17.943267202277948 25.76931840389833 0.5
E 5.2790584779619625 13.461049970041746 24.808782987714434 0.5
E 6.493350328971774 16.78121480766739 24.853512749219075 0.5
E 2.0679941318243458 14.623102364652302 25.724588642393687 0.5
P 4.878401711657679 15.451021488966932 27.703517433130802 0.5
P 3.6829427491384403 15.953295683352762 22.87458395848196 0.5
A 4.535639494591244 3.052747293396351 6.440618071845428 2.5
E 4.813102694535855 1.372442298542049 8.270806394653818 0.5
E 4.258176294646633 4.7330522882506525 4.6104297490370385 0.5
E 5.333682239553494 1.3690377328357892 4.773809776662661 0.5
E 3.7375967496289944 4.736456853956913 8.107426367028195 0.5
P 2.182738742351656 2.283528702913353 6.091102964638694 0.5
P 6.888540246830832 3.821965883879349 6.790133179052162 0.5
A 20.592082175857215 7.042842064924146 23.06659432687909 2.5
E 20.46427888871523 7.6035314386529915 25.49955420036343 0.5
E 20.719885462999198 6.482152691195301 20.63363445339475 0.5
E 18.407245362343712 5.838680552425517 23.229330770661196 0.5
E 22.776918989370717 8.247003577422776 22.903857883096986 0.5
P 19.383713681517207 9.160770882898497 22.515030093192845 0.5
P 21.800450670197222 4.924913246949795 23.618158560565337 0.5
A 21.875989002505314 16.9886076955592 34.66292290093573 2.5
E 20.680815744571934 17.123423732175667 32.47126017145573 0.5
E 23.071162260438694 16.853791658942733 36.854585630415734 0.5
E 23.788244013589278 15.826034746075171 33.54860476426557 0.5
E 19.96373399142135 18.151180645043226 35.7772410376059 0.5
P 22.95526730586593 19.197736205492205 34.210253517725434 0.5
P 20.796710699144697 14.779479185626192 35.11559228414603 0.5
A 13.87916490995766 5.074313215022689 30.197446838128847 2.5
E 15.550008302741015 3.450155355930939 29.29169101808708 0.5
E 12.208321517174307 6.698471074114439 31.103202658170616 0.5
E 15.21653869702348 6.969830667407276 29.265542904575877 0.5
E 12.54179112289184 3.178795762638101 31.129350771681818 0.5
P 12.586990885122669 4.936020639470803 28.061759254916876 0.5
P 15.171338934792653 5.212605790574575 32.333134421340816 0.5
A 25.76870884064956 34.48652086605439 26.49112724615125 2.5
E 27.601487862223895 35.94100054724564 25.610553617725323 0.5
E 23.935929819075223 33.03204118486314 27.37170087457718 0.5
E 25.108891821243066 33.90165593715644 24.151773806448922 0.5
E 26.42852586005605 35.07138579495234 28.83048068585358 0.5
P 27.335732311749766 32.53910671597039 26.536022335794375 0.5
P 24.201685369549352 36.43393501613839 26.446232156508128 0.5
A 36.13547614307783 19.521570554502233 33.391486489309635 2.5
E 37.4305205009027 21.559441693612523 34.039515293953585 0.5
E 34.84043178525296 17.483699415391943 32.743457684665685 0.5
E 34.0191797173242 20.85165464236156 33.43802418979872 0.5
E 38.25177256883146 18.191486466642907 33.34494878882055 0.5
P 36.44231412900747 20.094246326301356 30.977383568805646 0.5
P 35.82863815714819 18.94889478270311 35.80558940981362 0.5
A 10.931702626941231 11.072624049493701 22.267165418398136 2.5
E 10.485595349877874 11.064506965415376 19.8073031437374 0.5
E 11.377809904004588 11.080741133572026 24.727027693058872 0.5
E 8.779398879381866 12.2843733982548 22.653497003983464 0.5
E 13.084006374500596 9.860874700732602 21.880833832812808 0.5
P 9.740662377581478 8.885937599925535 22.49038167157416 0.5
P 12.122742876300984 13.259310499061867 22.043949165222113 0.5
70
Properties=species:S:1:pos:R:3:radius:R:1
A 12.683159563055712 15.903837299201108 40.24521680505685 2.5
E 14.579358172883168 17.5228383854735 40.42760736056243 0.5
E 10.786960953228256 14.284836212928719 40.062826249551264 0.5
E 12.652591510800544 15.659369454610381 42.73304739959959 0.5
E 12.71372761531088 16.148305143791834 37.757386210514106 0.5
P 11.054203938653949 17.79303579475693 40.410844755958486 0.5
P 14.312115187457476 14.014638803645285 40.07958885415521 0.5
A 22.791773633806585 23.08791970539605 16.101331087283217 2.5
E 22.682639965806732 24.871781603439267 14.353210218687854 0.5
E 22.900907301806438 21.304057807352834 17.84945195587858 0.5
E 23.370203993244257 21.40375445576916 14.346621501274736 0.5
E 22.213343274368913 24.77208495502294 17.856040673291698 0.5
P 25.221487230465613 23.568985335699136 16.44054738634827 0.5
P 20.362060037147558 22.606854075092965 15.762114788218163 0.5
A 3.494004298780478 15.80036750440766 25.14196500740401 2.5
E 1.690569833342205 17.313703847128536 24.300872121529263 0.5
E 5.297438764218751 14.287031161686784 25.983057893278758 0.5
E 4.075812948831244 15.186210088855066 22.78945371866438 0.5
E 2.9121956487297123 16.414524919960254 27.49447629614364 0.5
P 5.124686003956264 17.69314952638523 25.051116817091668 0.5
P 1.8633225936046918 13.90758548243009 25.232813197716354 0.5
A 4.61792276125513 3.66798474875478 6.290678235135291 2.5
E 5.261653461798172 1.2530500028903986 6.351513737888558 0.5
E 3.9741920607120886 6.082919494619162 6.229842732382023 0.5
E 2.2059047616338407 3.0219641349396538 6.168913970965601 0.5
E 7.0299407608764195 4.314005362569906 6.41244249930498 0.5
P 4.484581264783765 3.6953259217875125 8.786969986028186 0.5
P 4.751264257726495 3.6406435757220477 3.7943864842423953 0.5
A 20.74075230332126 6.714293334887211 22.835522112852537 2.5
E 18.817757561178954 8.311817500534204 22.832736099820163 0.5
E 22.663747045463563 5.116769169240218 22.83830812588491 0.5
E 19.93663354952332 5.750118193848804 24.99741002095409 0.5
E 21.544871057119195 7.678468475925618 20.673634204750986 0.5
P 19.360359514479914 5.050477588604248 21.58004096566738 0.5
P 22.121145092162603 8.378109081170175 24.091003260037695 0.5
A 21.89233449420784 17.07456692367656 35.02085444218933 2.5
E 22.173002088340166 15.416757235721906 33.17074829925383 0.5
E 21.611666900075516 18.732376611631214 36.870960585124834 0.5
E 21.57465468857191 15.204024700458422 36.6487829824666 0.5
E 22.21001429984377 18.945109146894698 33.392925901912065 0.5
P 24.356133439474096 17.02223309444671 35.44151574017508 0.5
P 19.428535548941586 17.12690075290641 34.60019314420359 0.5
A 14.129689304415542 4.993477027942955 29.9993440389691 2.5
E 12.774340357310669 3.1941196300538297 28.915212042282374 0.5
E 15.485038251520416 6.79283442583208 31.083476035655824 0.5
E 13.899075318190874 6.403312920362948 27.947715430814483 0.5
E 14.36030329064021 3.583641135522962 32.050972647123714 0.5
P 12.041664778473418 6.005739696968419 30.929654668790217 0.5
P 16.217713830357667 3.981214358917491 29.06903340914798 0.5
A 26.452984898230667 34.143724478819344 26.241065558904324 2.5
E 28.576309468598375 35.06983324300863 27.181180086908952 0.5
E 24.32966032786296 33.21761571463006 25.300951030899697 0.5
E 26.829718570317947 35.425198851349336 24.127799088989736 0.5
E 26.076251226143388 32.86225010628935 28.354332028818913 0.5
P 27.717723807725115 32.2071951117708 25.29222969250269 0.5
P 25.18824598873622 36.08025384586789 27.18990142530596 0.5
A 36.05940756847922 19.248792498259498 33.50955309294381 2.5
E 38.140198152128946 18.135878119301076 32.683882376433246 0.5
E 33.9786169848295 20.36170687721792 34.33522380945438 0.5
E 34.69896197151457 17.891579021437778 31.910441040574174 0.5
E 37.419853165443875 20.606005975081217 35.108665145313445 0.5
P 35.79578221936617 17.468513541623228 35.244807688634005 0.5
P 36.32303291759228 21.029071454895767 31.77429849725362 0.5
A 10.989847873512238 10.969860651698742 22.815776486737295 2.5
E 10.181141994134428 9.50355106035084 20.959454590356465 0.5
E 11.798553752890047 12.436170243046643 24.672098383118126 0.5
E 10.924132624266935 12.944828467243175 21.284377246309678 0.5
E 11.05556312275754 8.994892836154309 24.347175727164913 0.5
P 8.625175315486834 11.416445817022009 23.493187280448762 0.5
P 13.354520431537642 10.523275486375475 22.13836569302583 0.5
70
Properties=species:S:1:pos:R:3:radius:R:1
A 13.150199619330595 16.406002974237317 0.20779503528330376 2.5
E 11.415570236154945 14.699267601076011 -0.3650184326308926 0.5
E 14.884829002506244 18.112738347398626 0.7806085031975002 0.5
E 14.32470163201047 15.936002747246834 -1.9485084704505486 0.5
E 11.97569760665072 16.8760032012278 2.364098541017156 0.5
P 11.785792815904697 18.171266170655663 -0.9201410986073939 0.5
P 14.514606422756492 14.640739777818972 1.3357311691740015 0.5
A 22.347056913523794 22.82953038269886 16.399381892280786 2.5
E 19.960083096863997 23.32241746821816 16.955635718792692 0.5
E 24.73403073018359 22.33664329717956 15.843128065768878 0.5
E 21.617389383640646 21.630876757356695 14.33036889515182 0.5
E 23.076724443406942 24.028184008041023 18.46839488940975 0.5
P 22.48827056164279 24.967354465120668 15.11106248382551 0.5
P 22.2058432654048 20.69170630027705 17.687701300736062 0.5
A 3.0138710613971043 16.302650488309517 25.263957163385005 2.5
E 0.7697165910456993 17.386503525032058 25.461525652747202 0.5
E 5.258025531748509 15.218797451586976 25.066388674022807 0.5
E 2.233390567008292 14.422188960531122 26.71472063150228 0.5
E 3.7943515557859167 18.18311201608791 23.813193695267728 0.5
P 2.236297327864309 15.062034900251556 23.237568244251463 0.5
P 3.7914447949298995 17.543266076367477 27.290346082518546 0.5
A 4.620625719327785 3.9016503845342476 6.211973450420607 2.5
E 6.416161030733861 2.5776668558323923 5.083647007754386 0.5
E 2.8250904079217105 5.225633913236103 7.340299893086828 0.5
E 2.9287325938023088 2.19551841074482 5.521603013761589 0.5
E 6.312518844853262 5.607782358323675 6.902343887079625 0.5
P 5.025039612874065 2.6422134850671433 8.333356984571648 0.5
P 4.216211825781506 5.161087284001352 4.090589916269566 0.5
A 20.975370540191257 6.4056804246748635 22.57878611560993 2.5
E 19.631560159483627 7.655750804408249 20.881288632130993 0.5
E 22.319180920898887 5.155610044941478 24.276283599088867 0.5
E 19.268815026138885 4.578760365730893 22.584387516085243 0.5
E 22.68192605424363 8.232600483618834 22.573184715134616 0.5
P 22.213046563293236 5.243920060424527 20.743446659842395 0.5
P 19.737694517089277 7.5674407889252 24.414125571377465 0.5
A 21.644397236979344 16.969093580696534 35.06571922991842 2.5
E 20.257997167773333 16.473770406231978 33.04518717104279 0.5
E 23.030797306185356 17.46441675516109 37.08625128879405 0.5
E 19.75801668698569 16.24459094390512 36.53767858733568 0.5
E 23.530777786972997 17.693596217487947 33.59375987250117 0.5
P 22.521587791369605 14.62820680809925 35.03768622851182 0.5
P 20.767206682589084 19.309980353293817 35.09375223132503 0.5
A 14.438980744168862 5.0801958434838115 29.88692713132232 2.5
E 12.081490281341543 4.311487866645198 30.205245783021564 0.5
E 16.79647120699618 5.848903820322425 29.568608479623077 0.5
E 14.060631089026304 5.218823154184804 27.41961401637764 0.5
E 14.817330399311421 4.941568532782819 32.354240246267004 0.5
P 13.69797449849448 7.455036999239119 30.133988315645272 0.5
P 15.179986989843245 2.705354687728504 29.639865946999368 0.5
A 26.46622878600754 33.950588373902264 26.160520584022056 2.5
E 26.90136016452814 31.771221552502244 27.305518811622612 0.5
E 26.031097407486943 36.12995519530228 25.0155223564215 0.5
E 27.037651387702443 35.170989107058794 28.26625044817465 0.5
E 25.89480618431264 32.73018764074573 24.054790719869462 0.5
P 28.860834576884166 34.055384882873916 25.449970939022947 0.5
P 24.071622995130916 33.84579186493061 26.871070229021164 0.5
A 36.279763829541956 18.98544027656406 33.601143493662505 2.5
E 36.63333528608262 17.83292827672737 35.79128123256223 0.5
E 35.92619237300129 20.13795227640075 31.411005754762783 0.5
E 33.81134035031645 18.980809890919954 33.997204204586566 0.5
E 38.74818730876746 18.990070662208165 33.205082782738444 0.5
P 36.45829324540555 21.203929548515102 34.73975343473547 0.5
P 36.10123441367836 16.766951004613016 32.46253355258954 0.5
A 10.882381124334342 11.404620216080735 23.371094100068348 2.5
E 9.195376887191923 11.526680711512356 21.53013838649985 0.5
E 12.569385361476762 11.282559720649115 25.212049813636845 0.5
E 12.703215906533186 11.917162093190667 21.736511119566742 0.5
E 9.061546342135498 10.892078338970803 25.005677080569953 0.5
P 10.584761568860577 13.848470060008468 23.80585902567296 0.5
P 11.180000679808108 8.960770372153002 22.936329174463737 0.5
70
Properties=species:S:1:pos:R:3:radius:R:1
A 13.777606727883725 16.83364054780918 0.16411428762771466 2.5
E 15.577187397537863 18.508421071518633 -0.29044001145079335 0.5
E 11.978026058229588 15.158860024099724 0.6186685867062227 0.5
E 13.515799339289416 17.742998609753354 2.4780989043558943 0.5
E 14.039414116478035 15.924282485865005 -2.149870329100465 0.5
P 12.062099133996513 18.451719072659166 -0.6658589545522265 0.5
P 15.493114321770937 15.215562022959189 0.9940875298076558 0.5
A 21.82514468642349 22.8657363221998 16.571652931555466 2.5
E 20.090286278584355 23.11839887461602 18.353906544080058 0.5
E 23.560003094262623 22.613073769783583 14.789399319030876 0.5
E 20.293961312012474 21.357172628236007 15.29505077928477 0.5
E 23.356328060834503 24.374300016163595 17.84825508382616 0.5
P 20.878707272392468 24.843208753325303 15.370046088423555 0.5
P 22.77158210045451 20.8882638910743 17.773259774687375 0.5
A 2.8603594071512046 16.361016756805792 25.21852298241142 2.5
E 0.5828618771410237 17.385974618585493 25.330175937469342 0.5
E 5.137856937161386 15.336058895026092 25.1068700273535 0.5
E 3.8862880254520746 18.587060897795848 25.710659094188212 0.5
E 1.8344307888503344 14.13497261581574 24.72638687063463 0.5
P 2.7580096589910394 15.866862060440884 27.667060436711786 0.5
P 2.96270915531137 16.8551714531707 22.769985528111057 0.5
A 4.749831387867927 4.100844474361314 6.375089324498857 2.5
E 5.728767937514901 6.401194051880407 6.383752636378958 0.5
E 3.770894838220952 1.8004948968422214 6.366426012618756 0.5
E 4.137249243199397 4.37060634923556 3.9663611026154997 0.5
E 5.362413532536456 3.8310825994870688 8.783817546382215 0.5
P 6.967132979397213 3.1597704326027567 5.705796189818969 0.5
P 2.53252979633864 5.041918516119872 7.044382459178745 0.5
A 21.71806757643293 6.075199217816139 22.207935943430716 2.5
E 22.97511625908621 7.222705202728999 20.376800059879027 0.5
E 20.46101889377965 4.9276932329032785 24.039071826982404 0.5
E 19.75995763246157 5.783919785317287 20.68118719542879 0.5
E 23.676177520404288 6.366478650314991 23.73468469143264 0.5
P 22.632197795144656 3.8732940639109747 21.455619762263687 0.5
P 20.803937357721203 8.277104371721304 22.960252124597744 0.5
A 21.042362665015986 16.880316349630338 35.34443304873983 2.5
E 18.98757565998515 16.688039984871345 33.9334475195753 0.5
E 23.09714967004682 17.07259271438933 36.75541857790436 0.5
E 20.19785779181905 19.039350035441455 36.28005319745389 0.5
E 21.886867538212922 14.72128266381922 34.40881290002577 0.5
P 19.89577560634871 15.634682638185373 37.18392612396703 0.5
P 22.188949723683262 18.1259500610753 33.504939973512634 0.5
A 14.399980702701663 5.102036320569101 29.65134693996259 2.5
E 12.160166369738139 4.16770791778396 30.25156539152573 0.5
E 16.639795035665188 6.036364723354242 29.05112848839945 0.5
E 14.602605117067414 3.429654416815107 27.80416473057018 0.5
E 14.197356288335913 6.774418224323095 31.498529149355 0.5
P 13.308112990682105 6.7083268309506625 28.07728985849952 0.5
P 15.491848414721222 3.49574581018754 31.22540402142566 0.5
A 26.281176470969186 33.993926855555486 26.053351899670552 2.5
E 27.582778689147908 33.651030950934135 23.946635482060575 0.5
E 24.979574252790464 34.33682276017684 28.16006831728053 0.5
E 27.093589716410364 31.79171484031042 26.913727956138462 0.5
E 25.468763225528008 36.19613887080055 25.192975843202642 0.5
P 28.254958724477724 35.12648353780386 27.088484247358803 0.5
P 24.307394217460647 32.861370173307115 25.018219551982302 0.5
A 36.56444835441897 18.628643509792333 33.5047694640785 2.5
E 36.39024824799699 19.98853688186324 35.59530631845846 0.5
E 36.73864846084095 17.268750137721426 31.41423260969854 0.5
E 34.424197095148074 19.62289295408832 32.6796679008106 0.5
E 38.70469961368987 17.634394065496345 34.3298710273464 0.5
P 37.84467445558727 20.47584627589989 32.40984340686154 0.5
P 35.284222253250675 16.781440743684776 34.59969552129546 0.5
A 10.558227463961325 11.72786750380245 23.619047871552578 2.5
E 10.57173425075254 10.002869747951154 21.809572724163 0.5
E 10.54472067717011 13.452865259653747 25.428523018942155 0.5
E 12.319048826575335 10.449931892585019 24.850465226695192 0.5
E 8.797406101347315 13.005803115019882 22.387630516409963 0.5
P 12.332861425000807 13.008985498326096 22.41098703350054 0.5
P 8.783593502921843 10.446749509278805 24.827108709604616 0.5
70
Properties=species:S:1:pos:R:3:radius:R:1
A 14.51073625491612 17.23288030358864 0.1432099089661051 2.5
E 14.144843738779539 15.408104484856072 1.8124360404426314 0.5
E 14.876628771052701 19.05765612232121 -1.526016222510421 0.5
E 15.391001555626097 15.559897993278854 -1.4927189372116465 0.5
E 13.630470954206142 18.905862613898424 1.7791387551438569 0.5
P 12.199620579100394 16.88456521525714 -0.7441575077443608 0.5
P 16.821851930731846 17.58119539192014 1.0305773256765711 0.5
A 21.622118083490786 23.262650851346454 17.13445208759569 2.5
E 21.5097379069965 25.14654166813774 15.49484052190667 0.5
E 21.734498259985074 21.378760034555167 18.77406365328471 0.5
E 23.243682063651033 22.069425977903972 15.652310171433252 0.5
E 20.00055410333054 24.455875724788935 18.616594003758127 0.5
P 23.52156562269228 24.392770221947746 18.30275395527106 0.5
P 19.722670544289294 22.13253148074516 15.966150219920317 0.5
A 2.6410238660001055 16.185546798507836 25.232634491086106 2.5
E 0.2588474857853722 16.179758962850116 24.47421363529093 0.5
E 5.023200246214839 16.191334634165557 25.991055346881282 0.5
E 3.398284630207232 16.306921457410635 22.85317566034994 0.5
E 1.883763101792979 16.064172139605038 27.61209332182227 0.5
P 2.5986938702626956 18.682591990957164 25.346535668982746 0.5
P 2.6833538617375154 13.68850160605851 25.118733313189466 0.5
A 4.339818649879472 3.707189030041116 6.767673218768662 2.5
E 5.339023057554654 1.8163398599978249 8.062385529604068 0.5
E 3.3406142422042904 5.598038200084407 5.472960907933256 0.5
E 2.233332768266063 2.393164857250552 6.47431728498664 0.5
E 6.446304531492881 5.02121320283168 7.0610291525506845 0.5
P 3.437428611012943 4.680857294630417 8.886083549248994 0.5
P 5.242208688746001 2.7335207654518148 4.649262888288329 0.5
A 22.552659364188276 5.599573023531905 22.262420833486715 2.5
E 21.636029744222444 3.8458959318143178 20.73454426851558 0.5
E 23.469288984154108 7.353250115249492 23.79029739845785 0.5
E 20.709815767553806 7.1491105922822955 21.589471503019546 0.5
E 24.395502960822746 4.050035454781514 22.935370163953884 0.5
P 21.133604179163264 4.720056121467011 24.12326268620756 0.5
P 23.97171454921329 6.479089925596798 20.40157898076587 0.5
A 20.12189829146479 16.74380378573318 35.410373707947386 2.5
E 18.33081008247797 17.94820560027138 34.1488590244158 0.5
E 21.912986500451613 15.539401971194982 36.67188839147897 0.5
E 21.841097552281724 18.26761172185419 34.42428888633138 0.5
E 18.40269903064786 15.219995849612173 36.39645852956339 0.5
P 19.828032796322514 18.317787789130943 37.33032616251835 0.5
P 20.41576378660707 15.169819782335418 33.490421253376425 0.5
A 14.307051361782888 5.2593882387737505 29.73823318785636 2.5
E 12.740088797875059 7.204972661439495 29.641643449329237 0.5
E 15.874013925690717 3.3138038161080066 29.83482292638348 0.5
E 13.06555975208064 4.166432057827377 27.863627797496303 0.5
E 15.548542971485135 6.352344419720124 31.612838578216415 0.5
P 15.808159920930844 6.386396686305735 28.087013925359333 0.5
P 12.805942802634931 4.132379791241766 31.389452450353385 0.5
A 25.691756762705975 34.031219352978056 26.052832528837246 2.5
E 24.371523466628314 36.13239090008566 25.74941503831524 0.5
E 27.011990058783635 31.93004780587045 26.35625001935925 0.5
E 27.81436084692512 35.33108046725846 25.81849733037309 0.5
E 23.56915267848683 32.73135823869765 26.2871677273014 0.5
P 25.73094790437661 34.41258428740237 28.52326262119109 0.5
P 25.65256562103534 33.649854418553744 23.582402436483402 0.5
A 36.637347318661696 18.237833174271795 33.14150077919923 2.5
E 34.93763093909971 19.417565048358657 34.54478155449428 0.5
E 38.33706369822368 17.058101300184934 31.73822000390417 0.5
E 35.23879905007505 18.640700849597668 31.108827569701127 0.5
E 38.03589558724834 17.834965498945923 35.174173988697326 0.5
P 37.822685654109634 20.40484271311594 32.75544030585795 0.5
P 35.45200898321376 16.07082363542765 33.5275612525405 0.5
A 10.242257607449586 11.645828226268138 23.508835167563884 2.5
E 8.81560981496456 9.78686220683975 24.37999612560204 0.5
E 11.668905399934612 13.504794245696527 22.637674209525727 0.5
E 11.659505498253406 11.521535550157441 25.56454909383844 0.5
E 8.825009716645766 11.770120902378835 21.453121241289328 0.5
P 11.727546970574332 9.978855920176164 22.38406015072155 0.5
P 8.75696824432484 13.312800532360113 24.63361018440622 0.5
70
Properties=species:S:1:pos:R:3:radius:R:1
A 15.123470491186783 17.170378779320867 40.16344994437827 2.5
E 15.303812547687711 19.07070323364632 41.77783642566129 0.5
E 14.943128434685855 15.270054324995414 38.54906346309525 0.5
E 13.354904362067224 16.12685617657462 41.589365237966376 0.5
E 16.892036620306342 18.213901382067114 38.73753465079017 0.5
P 13.365730297191162 18.415299477939882 38.894386563548984 0.5
P 16.881210685182406 15.925458080701851 41.43251332520756 0.5
A 21.009554976486708 23.659199873641967 18.020885948209365 2.5
E 22.03159506834228 23.598689426377074 20.301625419611675 0.5
E 19.987514884631135 23.71971032090686 15.740146476807055 0.5
E 20.03211655053896 21.389422274101968 18.398673947103 0.5
E 21.986993402434457 25.928977473181966 17.64309794931573 0.5
P 18.947990479770326 24.70535862564812 18.97246552527073 0.5
P 23.07111947320309 22.613041121635813 17.069306371148 0.5
A 2.2947869262510787 16.13658872562684 25.253493930419133 2.5
E 0.16130239785301992 16.227862546425154 23.953527447496285 0.5
E 4.4282714546491375 16.045314904828526 26.55346041334198 0.5
E 3.3550336481755636 14.808144174446975 23.420160364728286 0.5
E 1.234540204326594 17.465033276806707 27.08682749610998 0.5
P 3.0524944263685754 18.25245832559684 24.158516679427912 0.5
P 1.5370794261335823 14.02071912565684 26.348471181410353 0.5
A 4.3801124842982375 3.4034669168198812 6.9265311870354624 2.5
E 5.338574656698063 5.693839464663495 6.634052373849297 0.5
E 3.421650311898412 1.1130943689762676 7.219010000221628 0.5
E 6.504918754854795 2.4046238616240165 6.06774666010781 0.5
E 2.2553062137416804 4.402309972015746 7.785315713963115 0.5
P 5.283743258830606 3.322806250004068 9.256111681490781 0.5
P 3.476481709765869 3.4841275836356944 4.596950692580144 0.5
A 22.59956595965003 5.359146584688286 22.128537628656638 2.5
E 20.41666218940891 4.269334616997467 22.67373576231706 0.5
E 24.782469729891147 6.448958552379105 21.583339494996213 0.5
E 21.4226617376979 6.954612187826569 20.605584588817365 0.5
E 23.776470181602157 3.763680981550003 23.65149066849591 0.5
P 22.28361092769105 6.94558895183633 24.0346785031723 0.5
P 22.915520991609007 3.7727042175402423 20.222396754140973 0.5
A 19.268517267020286 16.51665511474119 35.54858633687349 2.5
E 17.31518495380506 18.058361608679597 35.788657077901455 0.5
E 21.221849580235514 14.974948620802785 35.30851559584553 0.5
E 18.792391306880635 16.293999090060396 33.10446515232581 0.5
E 19.744643227159937 16.739311139421986 37.992707521421174 0.5
P 20.7543829891603 18.472049034446837 35.0809992599051 0.5
P 17.78265154488027 14.561261195035543 36.016173413841884 0.5
A 14.502210461866035 4.8227582542520855 29.669448403188888 2.5
E 15.704434433380051 7.014374230523465 29.63101749289412 0.5
E 13.299986490352019 2.631142277980706 29.707879313483655 0.5
E 12.549839726834191 5.873487967817784 28.514365903097083 0.5
E 16.454581196897877 3.772028540686387 30.824530903280692 0.5
P 15.498657166564914 4.237278552145204 27.45262466569586 0.5
P 13.505763757167156 5.408237956358967 31.886272140681914 0.5
A 25.026968677873608 33.52631902767025 26.04926146400436 2.5
E 22.751297965277665 34.25088877099622 25.310125823616993 0.5
E 27.30263939046955 32.801749284344275 26.788397104391727 0.5
E 26.01623371789072 35.57399194902499 25.01080574142794 0.5
E 24.037703637856495 31.478646106315505 27.08771718658078 0.5
P 24.72253890200691 34.76407275689441 28.199909788895877 0.5
P 25.331398453740306 32.28856529844609 23.898613139112843 0.5
A 36.48870598655121 18.1086269010991 32.58431358716802 2.5
E 34.47869685317252 19.18280129503272 33.611938350956926 0.5
E 38.4987151199299 17.03445250716548 31.556688823379112 0.5
E 35.29522449877896 17.97288218840762 30.391786435381334 0.5
E 37.68218747432346 18.24437161379058 34.776840738954704 0.5
P 37.374970745006486 20.36200719399115 31.96237144072145 0.5
P 35.602441228095934 15.855246608207052 33.20625573361459 0.5
A 9.898522045952106 11.539357489144503 23.647719905339258 2.5
E 8.07425077993528 11.428410308060805 25.353511531241075 0.5
E 11.722793311968932 11.650304670228202 21.94192827943744 0.5
E 11.562499577911312 10.852847145901306 25.382621147991667 0.5
E 8.2345445139929 12.225867832387701 21.91281866268685 0.5
P 9.507097569044827 9.138025718723867 23.072922021515584 0.5
P 10.289946522859385 13.94068925956514 24.222517789162932 0.5
70
Properties=species:S:1:pos:R:3:radius:R:1
A 15.385992614609034 17.17371632256657 40.20828580902141 2.5
E 15.079491756947697 18.122068268226137 37.91553946207928 0.5
E 15.692493472270371 16.225364376907002 42.50103215596354 0.5
E 13.157559776636042 16.05273150522277 40.04251450291495 0.5
E 17.614425452582026 18.29470113991037 40.374057115127876 0.5
P 16.476929968858315 15.150347442098077 39.225517238779574 0.5
P 14.295055260359753 19.197085203035062 41.19105437926325 0.5
A 20.604423898156412 23.79227513318895 18.16417949375293 2.5
E 20.86410920231712 26.151050581675996 18.95078099795865 0.5
E 20.344738593995704 21.433499684701907 17.37757798954721 0.5
E 19.03149787922787 24.56063768098685 16.379376217724975 0.5
E 22.177349917084953 23.023912585391052 19.948982769780883 0.5
P 22.53016201165512 24.10178664954539 16.600294798686768 0.5
P 18.678685784657706 23.482763616832514 19.72806418881909 0.5
A 1.5150121078289684 15.70381577164836 25.649071282093804 2.5
E 0.35637525584928653 16.06918352775168 23.464107427007292 0.5
E 2.6736489598086504 15.338448015545042 27.834035137180315 0.5
E 3.556319673436769 16.83779405242101 24.756234969364463 0.5
E -0.5262954577788319 14.56983749087571 26.541907594823144 0.5
P 0.6544169255121972 17.901678292721 26.472950078178055 0.5
P 2.37560729014574 13.505953250575716 24.825192486009552 0.5
A 4.354966527471305 2.8530224774234845 6.960183096579766 2.5
E 2.7203186444124126 1.0424436224487097 7.507659587699693 0.5
E 5.989614410530198 4.663601332398259 6.41270660545984 0.5
E 2.46351560627017 4.424680405555468 6.510400071525539 0.5
E 6.24641744867244 1.2813645492915013 7.409966121633993 0.5
P 4.3733977807692 3.5613271907056903 9.35767443588503 0.5
P 4.33653527417341 2.1447177641412787 4.562691757274502 0.5
A 22.401989093351993 5.100962648520668 21.715754908258123 2.5
E 22.66226436277534 3.021409919105185 23.078735916823184 0.5
E 22.141713823928647 7.1805153779361515 20.352773899693062 0.5
E 20.266646635103147 4.211937109125552 20.76709997820989 0.5
E 24.53733155160084 5.989988187915785 22.664409838306355 0.5
P 21.128187943200135 6.166370568467602 23.584534347889235 0.5
P 23.67579024350385 4.035554728573735 19.84697546862701 0.5
A 18.473887645787045 16.669647424650627 35.591720560920926 2.5
E 16.05568710396551 17.166362162413268 35.19728348251193 0.5
E 20.89208818760858 16.172932686887986 35.986157639329925 0.5
E 18.515209791356458 15.241650479402772 33.54010724339525 0.5
E 18.43256550021763 18.097644369898482 37.643333878446605 0.5
P 19.106816251413285 18.66065199361891 34.21865749371395 0.5
P 17.840959040160804 14.678642855682345 36.964783628127904 0.5
A 14.49541988613155 3.8514707418506102 30.01239093517938 2.5
E 13.511385999706807 5.382566740739111 31.726281933041385 0.5
E 15.479453772556294 2.3203747429621098 28.298499937317374 0.5
E 13.692992925155657 5.369626469850657 28.19543904868469 0.5
E 15.297846847107444 2.333315013850563 31.829342821674068 0.5
P 16.648972365794812 5.116756570319913 30.118520523927973 0.5
P 12.341867406468289 2.586184913381308 29.906261346430785 0.5
A 24.39045799861508 32.49192776539969 26.058669058834017 2.5
E 23.52963662441382 32.56701166412265 28.404590832864837 0.5
E 25.25127937281634 32.41684386667672 23.712747284803196 0.5
E 22.051359265214916 32.67092592974143 25.194622316713467 0.5
E 26.729556732015244 32.312929601057945 26.922715800954567 0.5
P 24.584374674342317 34.98438078708654 26.05005177619663 0.5
P 24.196541322887843 29.99947474371283 26.067286341471405 0.5
A 35.90807097118983 17.676992301192286 32.586376095989145 2.5
E 35.17091760650808 19.93825651557351 31.816123494761555 0.5
E 36.64522433587158 15.415728086811061 33.356628697216735 0.5
E 33.69334569811682 16.7279555854115 31.91980181137237 0.5
E 38.12279624426284 18.62602901697307 33.25295038060592 0.5
P 36.803390401198314 17.19118013084296 30.303310250817262 0.5
P 35.012751541181345 18.162804471541612 34.86944194116103 0.5
A 9.655851647301494 11.281746866449767 23.758042679344197 2.5
E 9.24682506011755 11.353280538666308 26.223317549357198 0.5
E 10.06487823448544 11.210213194233226 21.292767809331195 0.5
E 12.116007706673567 11.470038708959864 24.160756405930176 0.5
E 7.195695587929421 11.09345502393967 23.355328952758217 0.5
P 9.830005069643024 8.789874254179006 23.859242826099837 0.5
P 9.481698224959965 13.773619478720528 23.656842532588556 0.5
70
Properties=species:S:1:pos:R:3:radius:R:1
A 15.324248854680505 17.30386407085809 0.43437219875634303 2.5
E 17.603750862841554 16.30169977014901 0.21180241380316195 0.5
E 13.044746846519455 18.30602837156717 0.6569419837095241 0.5
E 14.56115904242764 15.287175048820306 1.6995438577924817 0.5
E 16.08733866693337 19.320553092895874 -0.8307994602797956 0.5
P 16.010954419843415 18.389512311669378 2.5790874162147643 0.5
P 14.637543289517593 16.218215830046802 -1.710343018702078 0.5
A 20.4429387673859 23.71543526614241 17.846921791461202 2.5
E 21.213599894077532 25.35866615530248 19.566187237143552 0.5
E 19.67227764069427 22.07220437698234 16.127656345778853 0.5
E 22.05945335329406 24.679113412934665 16.201259303907346 0.5
E 18.82642418147774 22.751757119350156 19.49258427901506 0.5
P 22.187347555873647 22.096448955420176 18.612376757047983 0.5
P 18.698529978898154 25.334421576864646 17.081466825874422 0.5
A 1.0768421236183228 15.619212247557378 26.067017716591163 2.5
E 0.6970314674739564 13.54697168308778 24.721074586869204 0.5
E 1.4566527797626891 17.691452812026977 27.412960846313123 0.5
E -0.6138373319457846 16.830247608697473 24.679575345679286 0.5
E 2.7675215791824304 14.408176886417284 27.45446008750304 0.5
P -0.7251975107994326 14.919775047349354 27.65240119037677 0.5
P 2.878881758036078 16.318649447765402 24.481634242805555 0.5
A 4.263641982229768 2.2090007881902665 7.204655902468216 2.5
E 4.30480492037417 4.679588015390766 7.5847932004498 0.5
E 4.222479044085367 -0.26158643901023293 6.824518604486633 0.5
E 3.3265301071994395 1.8717925599739682 9.497713238101156 0.5
E 5.200753857260097 2.5462090164065647 4.911598566835277 0.5
P 1.9462885464759272 2.389248849529755 6.284121443480996 0.5
P 6.58099541798361 2.028752726850778 8.125190361455436 0.5
A 22.557096296332837 4.613763809727961 21.222047709866636 2.5
E 24.129502628274697 4.483791795073234 19.28280930196587 0.5
E 20.984689964390977 4.7437358243826875 23.161286117767403 0.5
E 21.631727859333573 2.3701615669593235 20.622095851755635 0.5
E 23.4824647333321 6.857366052496598 21.821999567977638 0.5
P 24.266257372146477 3.5186125637112764 22.681298259043654 0.5
P 20.847935220519197 5.7089150557446455 19.76279716068962 0.5
A 17.594861395446035 16.39653786083731 36.441006538780016 2.5
E 16.09074573106673 14.465070627190645 35.93398544107442 0.5
E 19.09897705982534 18.328005094483974 36.94802763648561 0.5
E 19.57412349887328 15.038762673374078 35.74174402280592 0.5
E 15.61559929201879 17.754313048300542 37.140269054754114 0.5
P 17.329988606911535 17.218657600083958 34.09495420768519 0.5
P 17.859734183980535 15.57441812159066 38.78705886987484 0.5
A 14.675492595172 2.52638056725689 30.40124834606515 2.5
E 15.514249203291113 1.7735898121498688 32.632793423216555 0.5
E 13.836735987052888 3.2791713223639114 28.169703268913743 0.5
E 16.811556923399205 3.767162850949124 30.016945717727157 0.5
E 12.539428266944796 1.285598283564656 30.78555097440314 0.5
P 15.667317447657824 0.49075648518828974 29.34175881874995 0.5
P 13.683667742686177 4.56200464932549 31.46073787338035 0.5
A 24.08398386129055 31.61145904732922 26.33520074282726 2.5
E 24.864327775792024 33.81279647729888 25.443473825819527 0.5
E 23.30363994678908 29.410121617359554 27.226927659834995 0.5
E 25.155261578819875 32.12295837456873 28.535367211565422 0.5
E 23.01270614376123 31.099959720089707 24.1350342740891 0.5
P 21.964213254119404 32.68032852376174 27.118840082909923 0.5
P 26.2037544684617 30.542589570896702 25.5515614027446 0.5
A 35.21193462294359 17.167714643611554 32.88693369113367 2.5
E 32.983858016663376 16.08428154312039 33.22136956437058 0.5
E 37.4400112292238 18.251147744102717 32.55249781789676 0.5
E 36.1382736808198 15.853659940197819 34.801393454693624 0.5
E 34.285595565067375 18.48176934702529 30.972473927573713 0.5
P 35.86582344101639 15.337569033776878 31.314357314481963 0.5
P 34.55804580487079 18.997860253446227 34.459510067785374 0.5
A 9.659216453227142 11.004245931951111 23.79078917816919 2.5
E 10.239209232199661 13.305997647303663 23.006220878265925 0.5
E 9.079223674254623 8.70249421659856 24.57535747807246 0.5
E 11.723305346752234 10.11182155393469 22.698490789838356 0.5
E 7.59512755970205 11.896670309967533 24.883087566500027 0.5
P 10.944963479654918 11.39860334648185 25.89823711670493 0.5
P 8.373469426799366 10.609888517420371 21.683341239633453 0.5
70
Properties=species:S:1:pos:R:3:radius:R:1
A 15.131277665180649 17.302902092472458 0.6281863534821388 2.5
E 16.5070764624231 19.09991030087745 1.690231158766527 0.5
E 13.755478867938198 15.505893884067465 -0.43385845180224947 0.5
E 13.216481732709337 18.895829187068397 0.4133845650964194 0.5
E 17.04607359765196 15.709974997876516 0.8429881418678582 0.5
P 15.962381874349266 17.998132104934136 -1.6247941220823952 0.5
P 14.300173456012033 16.60767208001078 2.8811668290466725 0.5
A 20.6042832316935 23.83898862044659 17.27973169395575 2.5
E 19.813890941081834 26.21072688606039 17.26800026753698 0.5
E 21.394675522305167 21.46725035483279 17.29146312037452 0.5
E 22.871467166286955 24.598150746796108 18.010176676578503 0.5
E 18.337099297100046 23.07982649409707 16.549286711332996 0.5
P 19.907751083358683 23.618692307856808 19.67061280789604 0.5
P 21.300815380028318 24.05928493303637 14.888850580015461 0.5
A 0.9077051277773814 15.604609911245088 26.304729428483935 2.5
E 1.2705372231033687 13.389327194725636 25.204331611105484 0.5
E 0.5448730324513943 17.819892627764542 27.405127245862385 0.5
E -0.9969323608064983 14.64479025606566 27.60899254097767 0.5
E 2.8123426163612613 16.564429566424515 25.0004663159902 0.5
P 2.4859031215924654 14.95555774429612 28.131754983011458 0.5
P -0.6704928660377024 16.253662078194054 24.47770387395641 0.5
A 4.187108723226225 1.7257990236751273 7.23883847746541 2.5
E 1.706936193233648 1.5929810906396913 7.5236254472058235 0.5
E 6.6672812532188015 1.8586169567105633 6.954051507724996 0.5
E 4.415277391561252 2.5224892786375497 9.59748717882762 0.5
E 3.9589400548911975 0.9291087687127049 4.880189776103199 0.5
P 4.403171862747878 -0.6401350485913884 8.017088235208991 0.5
P 3.9710455837045724 4.091733095941643 6.460588719721829 0.5
A 22.912358804555033 4.6817528725321385 21.093111136152693 2.5
E 21.714709776573937 3.4713328411673823 19.262668524801906 0.5
E 24.11000783253613 5.892172903896895 22.92355374750348 0.5
E 24.54372793610724 2.795921401770559 21.27276196555692 0.5
E 21.28098967300283 6.567584343293718 20.913460306748465 0.5
P 24.380102502343018 5.790140445341383 19.399828694843066 0.5
P 21.44461510676705 3.5733652997228935 22.78639357746232 0.5
A 17.08799136602165 16.353819249629836 37.33694941560021 2.5
E 17.33887115993766 14.18592489889398 38.556495812033155 0.5
E 16.83711157210564 18.521713600365693 36.11740301916726 0.5
E 19.573295249288392 16.622362775193032 37.3030527683071 0.5
E 14.60268748275491 16.08527572406664 37.37084606289332 0.5
P 17.189598141505797 15.13804029812343 35.15485005850162 0.5
P 16.986384590537504 17.56959820113624 39.519048772698795 0.5
A 15.16223206005303 1.7361961274063096 31.509043520116993 2.5
E 14.002176042119183 0.13953951936099385 29.974456373279956 0.5
E 16.32228807798688 3.3328527354516253 33.04363066695403 0.5
E 14.609749923181678 0.2672458372188933 33.455051879141465 0.5
E 15.714714196924383 3.205146417593726 29.56303516109252 0.5
P 17.306767796218384 0.49407184983168695 31.18026737231093 0.5
P 13.017696323887677 2.9783204049809324 31.837819667923057 0.5
A 24.119611963687372 30.900394206103893 26.147368940929972 2.5
E 23.07102691206064 32.90562270722031 25.084576370474057 0.5
E 25.168197015314107 28.895165704987477 27.210161511385888 0.5
E 24.62320645599266 29.964419080914418 23.884551415731078 0.5
E 23.616017471382087 31.83636933129337 28.410186466128867 0.5
P 26.332497405102195 32.06358345267466 26.158717942533038 0.5
P 21.90672652227255 29.737204959533123 26.136019939326907 0.5
A 34.23417907346574 16.569037168791514 33.083518882162295 2.5
E 34.6600652604982 14.971440547017034 34.95870047064658 0.5
E 33.80829288643328 18.166633790565992 31.20833729367801 0.5
E 36.64036120009226 17.24677683626556 33.11444648530251 0.5
E 31.827996946839225 15.891297501317467 33.05259127902208 0.5
P 34.76229698567738 14.769494455425791 31.430419522300863 0.5
P 33.7060611612541 18.368579882157235 34.736618242023724 0.5
A 9.088410550431542 11.472049489136454 23.929558536647523 2.5
E 9.730952158396944 9.412455792586385 22.66654068753926 0.5
E 8.44586894246614 13.531643185686523 25.192576385755785 0.5
E 11.48769483323107 12.169556358547373 24.012739648910664 0.5
E 6.689126267632014 10.774542619725535 23.846377424384382 0.5
P 8.804552817850608 12.705563969090946 21.773667348438295 0.5
P 9.372268283012476 10.238535009181962 26.08544972485675 0.5
70
Properties=species:S:1:pos:R:3:radius:R:1
A 14.981430765580908 17.344299732000522 0.5220553378420517 2.5
E 16.982433580519672 16.183299635539356 1.4697190496220445 0.5
E 12.980427950642145 18.505299828461688 -0.42560837393794104 0.5
E 15.318435450646444 16.1525225646617 -1.649601869374147 0.5
E 14.644426080515373 18.536076899339342 2.69371254505825 0.5
P 13.521151485151528 15.478356013817322 1.31945013574434 0.5
P 16.44171004601029 19.21024345018372 -0.2753394600602366 0.5
A 21.040019999908527 24.351723670324606 16.8611412853766 2.5
E 18.589561511057568 23.954538068942707 16.565342717979508 0.5
E 23.490478488759486 24.748909271706506 17.156939852773693 0.5
E 20.586718185651264 26.751967099527963 17.39344659791649 0.5
E 21.49332181416579 21.95148024112125 16.32883597283671 0.5
P 20.84059417507546 23.776332430712795 19.28583802141776 0.5
P 21.239445824741594 24.927114909936417 14.436444549335443 0.5
A 0.6440771481411623 15.445860734574675 26.50699835262274 2.5
E 1.84449935659037 13.646658092912633 27.760735316940977 0.5
E -0.5563450603080452 17.245063376236715 25.253261388304505 0.5
E -1.1021739967493893 15.526155552354416 28.294219570381138 0.5
E 2.390328293031714 15.365565916794933 24.719777134864344 0.5
P 1.9705738350688056 17.17976459479118 27.72518714878528 0.5
P -0.682419538786481 13.711956874358169 25.2888095564602 0.5
A 4.355684284019585 1.8669381830920884 7.733903097106488 2.5
E 4.040415383914537 2.1163339541980863 10.201372908467953 0.5
E 4.670953184124633 1.6175424119860904 5.266433285745023 0.5
E 4.225530334447034 4.349173883271428 7.466385101141661 0.5
E 4.485838233592136 -0.6152975170872508 8.001421093071315 0.5
P 6.832308088725581 2.0291346013904477 8.033947846858862 0.5
P 1.8790604793135883 1.7047417647937293 7.433858347354113 0.5
A 23.165666165291594 5.230727523821986 21.32137944250764 2.5
E 21.869778705151067 4.597429383922204 23.36334152752582 0.5
E 24.46155362543212 5.864025663721767 19.279417357489464 0.5
E 25.256925759609572 4.359120359787552 22.378230548756118 0.5
E 21.074406570973615 6.10233468785642 20.264528336259165 0.5
P 22.721471388391517 2.974794364881965 20.339821200439772 0.5
P 23.60986094219167 7.486660682762007 22.30293768457551 0.5
A 16.790524268862367 16.296657727628315 37.884331199212646 2.5
E 18.357931664837146 14.925424215586782 39.26742653594777 0.5
E 15.223116872887585 17.667891239669846 36.50123586247752 0.5
E 18.717795217483168 17.644651358311133 37.03666389287042 0.5
E 14.863253320241565 14.948664096945496 38.73199850555487 0.5
P 17.0713458236734 14.698961940848664 35.98209372001592 0.5
P 16.509702714051333 17.894353514407968 39.786568678409374 0.5
A 15.679854200396544 1.1530961985124852 32.46650233808601 2.5
E 17.270051152207756 0.9905021394771947 30.544306503522428 0.5
E 14.089657248585333 1.3156902575477758 34.38869817264959 0.5
E 13.867550633018178 0.1736791759438484 31.050063819982505 0.5
E 17.49215776777491 2.132513221081122 33.882940856189514 0.5
P 16.3407849336166 -1.1413112343263374 33.20735664091214 0.5
P 15.01892346717649 3.447503631351308 31.725648035259884 0.5
A 24.31630959947802 30.267999184341484 25.988797568123598 2.5
E 25.69209126000264 32.2993022099784 25.508138811204073 0.5
E 22.9405279389534 28.236696158704568 26.469456325043122 0.5
E 23.902809216257165 31.09746911367851 28.310649645539996 0.5
E 24.729809982698878 29.438529255004457 23.6669454907072 0.5
P 22.270278745448365 31.466242754891702 25.196351929612828 0.5
P 26.362340453507677 29.069755613791266 26.781243206634368 0.5
A 33.44184525406095 16.218059031519147 32.704019252875334 2.5
E 35.86581560867252 16.16192534088115 32.094743675865615 0.5
E 31.01787489944938 16.274192722157142 33.31329482988505 0.5
E 33.446743471577086 18.70921627163326 32.493991605902096 0.5
E 33.436947036544815 13.726901791405036 32.91404689984857 0.5
P 32.83000889731976 16.01561246127577 30.288512751379784 0.5
P 34.053681610802144 16.420505601762525 35.11952575437088 0.5
A 8.850343754726602 11.903115685012992 24.00546988936337 2.5
E 8.454542090113312 10.639065565819253 26.125733632027714 0.5
E 9.246145419339891 13.16716580420673 21.885206146699023 0.5
E 11.298048053629383 11.424196772377742 24.176876832788913 0.5
E 6.402639455823821 12.382034597648241 23.834062945937823 0.5
P 8.530836779179014 9.800066952508693 22.69203876391755 0.5
P 9.16985073027419 14.00616441751729 25.318901014809185 0.5
70
Properties=species:S:1:pos:R:3:radius:R:1
A 15.041032275891263 17.510398404945352 0.5008888212658469 2.5
E 14.147191017848913 19.26281570406099 2.0436400699064636 0.5
E 15.934873533933613 15.757981105829714 -1.0418624273747696 0.5
E 13.092206789858695 16.040672001860933 1.0412438203795022 0.5
E 16.989857761923833 18.98012480802977 -0.03946617784780859 0.5
P 13.75529239923975 18.51982294885017 -1.390654215450833 0.5
P 16.326772152542777 16.500973861040535 2.392431857982527 0.5
A 21.21717108411231 24.842420005913816 16.469856922364254 2.5
E 22.380788935929218 22.63886513951524 16.670703743861356 0.5
E 20.0535532322954 27.045974872312392 16.269010100867153 0.5
E 19.00541091390244 23.690667492211077 16.647573259975587 0.5
E 23.428931254322176 25.994172519616555 16.29214058475292 0.5
P 21.2812838317337 25.102827567155632 18.95543079124079 0.5
P 21.15305833649092 24.582012444672 13.984283053487719 0.5
A 0.5513964148985424 15.351355668863146 26.86086744509374 2.5
E 0.016664700751599315 17.067932819646206 28.59794109905735 0.5
E 1.0861281290454854 13.634778518080086 25.123793791130126 0.5
E -0.9820420321935648 13.731376028185565 27.989686515082102 0.5
E 2.0848348619906494 16.971335309540727 25.732048375105375 0.5
P -1.3492951757770029 16.175387736927952 25.46145948887239 0.5
P 2.4520880055740877 14.527323600798338 28.260275401315088 0.5
A 5.159589148322783 1.8032194723438084 8.54443750000481 2.5
E 3.7122176211818 2.3085575013665656 6.569659249455123 0.5
E 6.606960675463766 1.2978814433210515 10.519215750554496 0.5
E 5.4411080702815315 -0.545975724953911 7.736954359888793 0.5
E 4.878070226364034 4.152414669641528 9.351920640120825 0.5
P 7.178465756488787 2.4930856922849163 7.24127909076079 0.5
P 3.1407125401567786 1.1133532524027008 9.84759590924883 0.5
A 23.41363605358266 6.0657098050649 21.416479897394083 2.5
E 22.435483027377206 7.87027654890951 19.989330457308323 0.5
E 24.391789079788115 4.26114306122029 22.843629337479843 0.5
E 25.644303475530386 7.189285993529839 21.30831612629854 0.5
E 21.182968631634935 4.942133616599961 21.524643668489627 0.5
P 22.850307099961313 7.381428397973956 23.4662469754513 0.5
P 23.976965007204008 4.7499912121558445 19.36671281933687 0.5
A 16.31996495003111 16.317772659822836 38.45617718320256 2.5
E 17.747462958032738 15.520233207687902 40.347256308844926 0.5
E 14.89246694202948 17.11531211195777 36.5650980575602 0.5
E 18.30918763984483 17.422457368648534 37.420481868731386 0.5
E 14.330742260217392 15.213087950997139 39.49187249767374 0.5
P 16.8251802778689 14.221680458516897 37.19080966499184 0.5
P 15.814749622193323 18.413864861128776 39.721544701413286 0.5
A 15.97082631175918 0.4220335491261876 33.02159553263665 2.5
E 15.528041554651061 0.8826677295961463 30.604622671669375 0.5
E 16.4136110688673 -0.03860063134377101 35.43856839360393 0.5
E 15.79861980491336 2.8660077118935683 33.518923604157166 0.5
E 16.143032818605 -2.0219406136411933 32.52426746111614 0.5
P 13.516384098573152 0.16746245197428972 33.42272765379153 0.5
P 18.42526852494521 0.6766046462780855 32.62046341148177 0.5
A 24.219547429449264 29.83228618179026 25.929841533239852 2.5
E 22.58656071305324 31.64862836782696 25.39668541417289 0.5
E 25.852534145845286 28.01594399575356 26.462997652306814 0.5
E 23.77416336715745 28.77926912134035 23.70660333019933 0.5
E 24.66493149174108 30.88530324224017 28.153079736280375 0.5
P 26.059380960269802 31.189509867711575 24.918428439967087 0.5
P 22.379713898628726 28.475062495868944 26.941254626512617 0.5
A 32.88417032435336 16.539509726278368 31.995043844210617 2.5
E 33.61348062024387 17.70945386596732 34.080550306036194 0.5
E 32.154860028462856 15.369565586589415 29.90953738238504 0.5
E 34.40050291174281 14.627316295668358 32.53749362838735 0.5
E 31.367837736963914 18.451703156888378 31.45259406003388 0.5
P 31.03515924360518 15.43282684760894 33.26248655665605 0.5
P 34.73318140510155 17.646192604947796 30.727601131765184 0.5
A 8.748444921562953 11.924714973587035 23.93074373680967 2.5
E 8.150256455266758 14.198515554744127 24.78045043674865 0.5
E 9.346633387859148 9.650914392429943 23.08103703687069 0.5
E 7.524769229873125 10.886446298922161 25.847672520249052 0.5
E 9.97212061325278 12.962983648251909 22.01381495337029 0.5
P 6.652069869154882 11.881947271513711 22.569353798804492 0.5
P 10.844819973971024 11.967482675660358 25.29213367481485 0.5
70
Properties=species:S:1:pos:R:3:radius:R:1
A 15.206061763849615 17.423441217748906 0.4628780972215849 2.5
E 15.006817600818833 19.811975703975772 -0.24789948515123672 0.5
E 15.405305926880397 15.034906731522037 1.1736556795944066 0.5
E 13.218245155321974 16.841073446239854 -0.9369193558300648 0.5
E 17.193878372377256 18.005808989257957 1.8626755502732346 0.5
P 16.70902114266212 16.96984361324336 -1.4827226631676067 0.5
P 13.703102385037111 17.877038822254452 2.4084788576107767 0.5
A 20.8592405804292 25.11860083730388 16.433977194284836 2.5
E 22.119957197978223 25.73974429120202 18.501529955380988 0.5
E 19.59852396288018 24.49745738340574 14.366424433188682 0.5
E 19.235949714956885 23.812926649759497 17.81605594821152 0.5
E 22.482531445901518 26.424275024848264 15.051898440358151 0.5
P 19.436032803500275 27.15806050242621 16.68909265447731 0.5
P 22.282448357358128 23.07914117218155 16.17886173409236 0.5
A 0.5203883441779156 14.925526605897153 26.866457754522326 2.5
E 0.08018718299822264 17.17241388292082 25.862604925645154 0.5
E 0.9605895053576086 12.678639328873484 27.870310583399498 0.5
E -0.19116290341038233 15.785546884840535 29.103433378408553 0.5
E 1.2319395917662135 14.06550632695377 24.6294821306361 0.5
P -1.8354379991146184 14.245921805917934 26.378380346631303 0.5
P 2.8762146874704495 15.60513140587637 27.35453516241335 0.5
A 6.044578953061518 2.1206605611638123 9.198781559188086 2.5
E 4.4821864463050805 1.6297167452529364 11.08767113363368 0.5
E 7.606971459817956 2.611604377074688 7.309891984742492 0.5
E 7.577387496379043 3.3097164453192676 10.77569121858115 0.5
E 4.511770409743994 0.9316046770083568 7.621871899795023 0.5
P 7.25264667647904 -0.022962603940821946 9.640881210468935 0.5
P 4.836511229643996 4.264283726268447 8.756681907907238 0.5
A 23.875567674703223 6.627576602350483 21.01797615474314 2.5
E 24.473620574589276 4.210491509060138 20.79429696319126 0.5
E 23.27751477481717 9.044661695640826 21.241655346295016 0.5
E 26.255228314677325 7.16590120589059 21.56334012475147 0.5
E 21.49590703472912 6.089251998810376 20.472612184734807 0.5
P 24.354679318788133 6.970951431100064 18.588460614664157 0.5
P 23.396456030618314 6.284201773600901 23.44749169482212 0.5
A 16.22745745859395 16.385907175929574 38.95740727997145 2.5
E 18.119564790902626 14.908212639757103 38.26002022761782 0.5
E 14.335350126285274 17.863601712102046 39.654794332325075 0.5
E 15.809352815327603 16.979544188703102 36.56517326041041 0.5
E 16.645562101860296 15.792270163156045 41.349641299532486 0.5
P 14.647863096011081 14.458729458428653 38.75524968089322 0.5
P 17.80705182117682 18.313084893430496 39.159564879049675 0.5
A 16.13598361183583 40.07363884774402 33.063958818482746 2.5
E 17.19996068771727 42.30419784527943 33.441529130490096 0.5
E 15.07200653595439 37.84307985020861 32.686388506475396 0.5
E 17.44352917554951 39.126818691098244 34.97284755012183 0.5
E 14.828438048122148 41.0204590043898 31.155070086843665 0.5
P 14.289831564790903 40.68856823351105 34.63353980387621 0.5
P 17.982135658880757 39.458709461976994 31.494377833089278 0.5
A 24.44188952023691 29.747154987388946 25.335012995821003 2.5
E 25.40522577716277 31.769165940952963 26.445623170346828 0.5
E 23.47855326331105 27.72514403382493 24.22440282129518 0.5
E 22.710872572814097 29.58512174350247 27.131488866967537 0.5
E 26.172906467659722 29.909188231275422 23.53853712467447 0.5
P 22.91690965681964 31.208393137569757 23.99739590388883 0.5
P 25.966869383654178 28.285916837208134 26.672630087753177 0.5
A 33.04448523082433 16.78079632999161 31.839323823512828 2.5
E 34.69236514906601 18.648069298586375 31.62072959712117 0.5
E 31.396605312582647 14.913523361396845 32.05791804990449 0.5
E 32.72003156126113 17.349576272415433 34.25204411260645 0.5
E 33.368938900387526 16.212016387567786 29.426603534419208 0.5
P 31.192669475582072 18.342776175524943 31.222073978810613 0.5
P 34.896300986066585 15.218816484458278 32.45657366821504 0.5
A 8.19903407177261 11.593632471879234 23.655520975299357 2.5
E 6.1935495447822735 10.101105481631755 23.635646484456238 0.5
E 10.204518598762947 13.086159462126712 23.675395466142476 0.5
E 9.181415051003357 10.2487953263139 25.520015722826003 0.5
E 7.216653092541863 12.938469617444568 21.79102622777271 0.5
P 9.32284874672979 10.105756053862061 21.9902088901152 0.5
P 7.075219396815432 13.081508889896407 25.320833060483515 0.5
70
Properties=species:S:1:pos:R:3:radius:R:1
A 15.256239770511579 17.612329027121365 40.19711563570664 2.5
E 17.225104836097568 18.917272714036276 41.01607371002834 0.5
E 13.287374704925591 16.307385340206455 39.37815756138494 0.5
E 14.682357475306672 19.466812401414646 38.621821845418346 0.5
E 15.830122065716486 15.757845652828086 41.77240942599493 0.5
P 16.686005298409817 16.55970687817549 38.437070992300356 0.5
P 13.82647424261334 18.66495117606724 41.95716027911292 0.5
A 20.57007917280877 25.31838080378756 16.45266838802682 2.5
E 20.917621913898092 26.885231240238284 14.53584973387321 0.5
E 20.22253643171945 23.751530367336834 18.369487042180427 0.5
E 18.340667580889882 26.35813068119412 16.898363515049407 0.5
E 22.79949076472766 24.278630926381 16.00697326100423 0.5
P 19.493539346822402 23.67098895537135 14.910863568719904 0.5
P 21.64661899879514 26.965772652203768 17.994473207333733 0.5
A 0.4751337962991908 14.244438216581027 26.81960132021987 2.5
E -0.045164973254572305 16.688775221885713 26.752476102168142 0.5
E 0.9954325658529539 11.80010121127634 26.8867265382716 0.5
E -0.4150223197725658 14.119022479337916 29.1523878475025 0.5
E 1.3652899123709474 14.369853953824139 24.486814792937242 0.5
P -1.8023453538623257 13.735039063313751 25.923163244706735 0.5
P 2.752612946460707 14.753837369848304 27.716039395733006 0.5
A 6.771327784201067 1.8726960885606816 9.490033298493142 2.5
E 8.315053725590523 3.053250622584395 11.062674773870327 0.5
E 5.227601842811611 0.6921415545369682 7.917391823115956 0.5
E 7.991350372311233 -0.27031908665418514 9.901166906094131 0.5
E 5.551305196090901 4.0157112637755485 9.078899690892152 0.5
P 5.229103707621581 1.3591038855492976 11.389445825203362 0.5
P 8.313551860780553 2.3862882915720656 7.590620771782921 0.5
A 24.06905070427314 6.480539070844893 20.46752422545605 2.5
E 24.365997161817283 8.590521048607233 21.775116996494546 0.5
E 23.772104246728993 4.370557093082554 19.159931454417553 0.5
E 25.761540264364932 7.2717887421776535 18.80637912444948 0.5
E 22.376561144181345 5.689289399512132 22.128669326462617 0.5
P 25.884898134630188 5.397995764027122 21.801989698419575 0.5
P 22.25320327391609 7.5630823776626634 19.133058752492524 0.5
A 16.388315712785 16.217501332727934 39.36911713362747 2.5
E 18.160370593750248 17.566265038741506 38.2330458488092 0.5
E 14.616260831819757 14.868737626714363 40.50518841844574 0.5
E 14.847230062566311 16.61899770440221 37.44198047987837 0.5
E 17.92940136300369 15.81600496105366 41.29625378737657 0.5
P 17.245565103299885 14.151191305439244 38.253103534432135 0.5
P 15.531066322270116 18.283811360016625 40.4851307328228 0.5
A 16.18084520093903 39.91649411762851 32.81595066700804 2.5
E 16.645436986182904 41.825805428661944 34.36148772273998 0.5
E 15.716253415695153 38.007182806595075 31.270413611276098 0.5
E 17.986477383322665 38.58459810442362 33.91855913421038 0.5
E 14.375213018555394 41.2483901308334 31.713342199805695 0.5
P 14.515358216594423 39.005130673350884 34.44247142537849 0.5
P 17.846332185283636 40.827857561906136 31.189429908637585 0.5
A 24.41537239649083 29.653841863370637 24.230781703154783 2.5
E 25.129122526519673 31.531816276627552 25.71865698523896 0.5
E 23.70162226646199 27.775867450113722 22.742906421070604 0.5
E 23.154484754460707 28.62813341393501 26.13027756546483 0.5
E 25.676260038520955 30.679550312806263 22.331285840844735 0.5
P 22.378040046072655 30.94656545328057 23.576455626927608 0.5
P 26.452704746909006 28.361118273460704 24.885107779381958 0.5
A 33.35446823524266 16.797435912695473 32.11916282713833 2.5
E 35.682928249733926 16.068829989843213 31.573812141706977 0.5
E 31.026008220751397 17.526041835547733 32.664513512569684 0.5
E 32.67413809009983 16.398976059990343 29.74674198770182 0.5
E 34.034798380385496 17.195895765400603 34.49158366657485 0.5
P 32.74996442671391 14.439393683436776 32.6885589901983 0.5
P 33.95897204377142 19.15547814195417 31.549766664078362 0.5
A 7.9692754664554055 11.05457241737363 23.42487054897309 2.5
E 10.212058703394773 11.97281134441689 24.038678845566945 0.5
E 5.7264922295160385 10.136333490330369 22.811062252379234 0.5
E 7.0694228721587065 13.379279904625534 23.235132816158366 0.5
E 8.869128060752104 8.729864930121725 23.614608281787813 0.5
P 8.609735192466736 11.105290969981256 21.008832683421286 0.5
P 7.328815740444075 11.003853864766002 25.840908414524893 0.5
70
Properties=species:S:1:pos:R:3:radius:R:1
A 15.310503889989809 17.540674362660013 39.53221411745353 2.5
E 17.609146934994545 17.172867711379165 40.44378332433002 0.5
E 13.011860844985074 17.90848101394086 38.620644910577035 0.5
E 16.19618672242736 17.309988818136286 37.205768308956436 0.5
E 14.424821057552258 17.77135990718374 41.85865992595062 0.5
P 14.884116657562208 15.078662492903518 39.614015591776244 0.5
P 15.73689112241741 20.002686232416508 39.45041264313081 0.5
A 20.55957765170844 25.77222053138458 16.24957589957728 2.5
E 21.99186663141319 24.09751690050326 15.068933689875168 0.5
E 19.127288672003694 27.4469241622659 17.43021810927939 0.5
E 18.95570487747132 23.959441965956845 16.875216368846733 0.5
E 22.163450425945562 27.584999096812314 15.623935430307828 0.5
P 21.834779754387966 25.37321975263884 18.362549627734598 0.5
P 19.284375549028915 26.17122131013032 14.136602171419963 0.5
A 0.4587133629042794 13.554463308970655 26.849948380431556 2.5
E 2.2176834149948252 14.859760147749432 28.055031165356393 0.5
E -1.3002566891862664 12.249166470191879 25.64486559550672 0.5
E -0.34965415093783897 12.63243043619073 29.028571189473404 0.5
E 1.2670808767463977 14.476496181750582 24.67132557138971 0.5
P -1.1232368001580038 15.476976129262582 27.076615840380896 0.5
P 2.0406635259665626 11.63195048867873 26.623280920482216 0.5
A 7.499290601397257 1.5768699213399995 9.718121694533647 2.5
E 8.49252253217673 -0.6615288929642575 10.221173461055141 0.5
E 6.506058670617783 3.8152687356442563 9.215069928012152 0.5
E 5.253872498078698 0.7409002029494761 10.431740760438121 0.5
E 9.744708704715816 2.4128396397305227 9.004502628629172 0.5
P 7.970021812353556 2.3122102357892937 12.060702909556138 0.5
P 7.028559390440957 0.8415296068907052 7.375540479511155 0.5
A 24.078152723694437 6.680598831887724 20.75338556552167 2.5
E 22.27598262799323 7.233409997351974 19.111258054790397 0.5
E 25.880322819395644 6.127787666423473 22.39551307625294 0.5
E 23.780829491470104 4.247732582772192 20.260678036153273 0.5
E 24.37547595591877 9.113465081003255 21.246093094890064 0.5
P 25.785133052152293 6.840478878343468 18.933864604113054 0.5
P 22.37117239523658 6.5207187854319795 22.572906526930282 0.5
A 16.406563834698613 15.700368559548918 40.008487074379 2.5
E 17.556659753701197 17.717709068811704 40.934563014451975 0.5
E 15.256467915696026 13.683028050286135 39.08241113430602 0.5
E 14.943607563006431 17.17366284559842 38.615948782693096 0.5
E 17.869520106390794 14.227074273499415 41.4010253660649 0.5
P 18.076006353688467 15.601670958857012 38.15020279596314 0.5
P 14.737121315708757 15.799066160240825 41.866771352794856 0.5
A 16.327052562802283 39.68919965019337 32.795879563642764 2.5
E 14.159808130925654 38.44643998169764 32.70314349268327 0.5
E 18.494296994678912 40.93195931868911 32.88861563460226 0.5
E 16.751576077411432 38.778065338940216 35.084899889545966 0.5
E 15.902529048193133 40.60033396144653 30.50685923773956 0.5
P 17.498731425819166 37.72060048499633 31.794986977626728 0.5
P 15.155373699785402 41.657798815390414 33.7967721496588 0.5
A 24.618060555985206 30.07333348539348 23.35364504838815 2.5
E 26.62816925646932 30.98026931807612 24.531325144014772 0.5
E 22.607951855501092 29.166397652710838 22.175964952761525 0.5
E 23.879934316284682 28.963112253040805 25.468492198775074 0.5
E 25.35618679568573 31.183554717746155 21.238797898001224 0.5
P 23.327854112618695 32.12147318049008 23.97853793750275 0.5
P 25.908266999351717 28.025193790296882 22.728752159273547 0.5
A 33.68403081856919 16.61219197480048 32.2571493587564 2.5
E 32.525373572439285 17.098779183894912 30.09595841995971 0.5
E 34.8426880646991 16.12560476570605 34.41834029755309 0.5
E 31.569501935780046 17.096470997458823 33.49982446998384 0.5
E 35.798559701358336 16.12791295214214 31.014474247528955 0.5
P 33.0235151186485 14.20829790139389 32.070033635206755 0.5
P 34.344546518489885 19.01608604820707 32.444265082306046 0.5
A 7.928602971029891 10.548017128757754 23.72731515401453 2.5
E 6.436436699563172 9.148917572712689 25.164660015407563 0.5
E 9.42076924249661 11.94711668480282 22.289970292621497 0.5
E 9.847263416076872 10.074894083920439 25.258620701923675 0.5
E 6.009942525982909 11.02114017359507 22.196009606105385 0.5
P 8.513566145008026 8.530921440219476 22.371165063364142 0.5
P 7.343639797051756 12.565112817296033 25.083465244664918 0.5
70
Properties=species:S:1:pos:R:3:radius:R:1
A 15.422579140361979 16.979273633090237 39.265685975485304 2.5
E 17.245653172746422 18.54851371147213 39.94677822242842 0.5
E 13.599505107977533 15.410033554708347 38.58459372854219 0.5
E 17.109337227115244 15.496155394104473 38.167866570500706 0.5
E 13.735821053608714 18.462391872076 40.3635053804699 0.5
P 15.70761989046359 15.719176071157719 41.40599107177269 0.5
P 15.137538390260367 18.239371195022756 37.12538087919792 0.5
A 20.294028556796974 26.15888090507531 16.00526951592208 2.5
E 21.3796214238414 24.5128208165346 17.542141114962355 0.5
E 19.208435689752548 27.80494099361602 14.468397916881807 0.5
E 18.139439755268057 24.9033542441522 16.182469685330727 0.5
E 22.44861735832589 27.41440756599842 15.828069346513432 0.5
P 19.63886810061128 27.56035833572684 17.969098884280225 0.5
P 20.949189012982668 24.757403474423782 14.041440147563938 0.5
A 0.6127102532459475 12.562078648738092 27.14653769809353 2.5
E 1.892140158689311 14.563440538929482 27.926030931897607 0.5
E -0.6667196521974158 10.560716758546702 26.36704446428945 0.5
E 0.6084001685377499 11.65715841040198 29.477009921789648 0.5
E 0.6170203379541451 13.466998887074205 24.81606547439741 0.5
P -1.5350887457822675 13.756092864205758 27.606200088369413 0.5
P 2.7605092522741628 11.368064433270426 26.686875307817644 0.5
A 8.124968338839215 1.2049429726074088 9.949995356274904 2.5
E 8.954420351672303 -0.9045260353551821 11.004580517772785 0.5
E 7.295516326006128 3.3144119805699996 8.895410194777023 0.5
E 10.243394865221862 2.362661851824188 10.599576797683481 0.5
E 6.006541812456568 0.04722409339062916 9.300413914866327 0.5
P 9.161442366842108 0.5268371540588457 7.778384413190233 0.5
P 7.088494310836323 1.883048791155972 12.121606299359575 0.5
A 24.40679832503774 6.850371071821833 21.773936645311277 2.5
E 22.95892574077683 8.878730590150212 21.575385281290966 0.5
E 25.85467090929865 4.822011553493453 21.972488009331588 0.5
E 25.991207766011733 8.123805356292097 23.229275728305417 0.5
E 22.82238888406375 5.57693678735157 20.318597562317137 0.5
P 23.124881126814646 6.133347510462517 23.796945668859486 0.5
P 25.688715523260836 7.567394633181149 19.75092762176307 0.5
A 16.739481548327344 15.241376987750579 0.2548371438610139 2.5
E 17.12295845519773 17.49544648889358 1.2658347432228239 0.5
E 16.35600464145696 12.987307486607577 -0.7561604555007959 0.5
E 14.827261941674875 16.159967290073144 -1.0678903535526074 0.5
E 18.65170115497981 14.322786685428015 1.5775646412746354 0.5
P 18.303566468602547 15.811782580725579 -1.610176481202309 0.5
P 15.175396628052143 14.670971394775579 2.1198507689243367 0.5
A 16.241109151663057 39.32630562554466 32.87275222577468 2.5
E 15.938252874924522 38.56496531490106 30.51083795827338 0.5
E 16.54396542840159 40.08764593618827 35.23466649327598 0.5
E 15.910261993188753 36.980495972834234 33.671324220636194 0.5
E 16.57195631013736 41.67211527825509 32.07418023091317 0.5
P 18.700543686950912 38.916991559530906 32.689329866195116 0.5
P 13.781674616375202 39.73561969155842 33.05617458535425 0.5
A 24.905740802274696 30.765405856487455 23.360453290976682 2.5
E 26.290555323743092 32.73249111925625 24.040794609822736 0.5
E 23.5209262808063 28.798320593718653 22.68011197213063 0.5
E 25.27862138591711 29.727004603503605 25.60381748524947 0.5
E 24.532860218632283 31.803807109471304 21.117089096703896 0.5
P 22.85799843286543 31.906588754536884 24.22904570501606 0.5
P 26.953483171683963 29.624222958438025 22.491860876937306 0.5
A 33.593760382800305 16.43487844501951 32.35777944607631 2.5
E 32.50053286717306 14.525338296084758 33.544586093631956 0.5
E 34.68698789842755 18.344418593954263 31.17097279852066 0.5
E 35.3010093232946 16.58850113946783 34.17758743675338 0.5
E 31.88651144230601 16.28125575057119 30.537971455399237 0.5
P 35.05668712541497 14.82862302094859 31.120933110274574 0.5
P 32.13083364018564 18.04113386909043 33.59462578187804 0.5
A 8.110966298580923 10.134393956841913 24.15867364707005 2.5
E 8.655185828589588 12.258896617740906 22.958543009601136 0.5
E 7.5667467685722585 8.009891295942921 25.358804284538962 0.5
E 6.61721739683773 11.396752398108259 25.715967898104804 0.5
E 9.604715200324115 8.872035515575568 22.601379396035295 0.5
P 6.181577970198209 9.756320406328264 22.614484193439488 0.5
P 10.040354626963637 10.512467507355563 25.70286310070061 0.5
70
Properties=species:S:1:pos:R:3:radius:R:1
A 15.860505242980224 16.163704147279162 39.03155119930408 2.5
E 15.814577872122232 17.908925883927857 40.82099015231019 0.5
E 15.906432613838216 14.41848241063047 37.24211224629798 0.5
E 18.17565079372717 15.518678105028862 39.72005863112754 0.5
E 13.54535969223328 16.808730189529463 38.34304376748062 0.5
P 14.918172098352862 14.493930960661165 40.63587839466944 0.5
P 16.802838387607586 17.833477333897157 37.427224003938726 0.5
A 19.88400533486614 26.542595438981852 15.609161255543022 2.5
E 17.730989731302014 25.845155046840382 16.671282110351825 0.5
E 22.037020938430263 27.240035831123322 14.547040400734216 0.5
E 19.052373503808983 25.73608773455106 13.393775550915693 0.5
E 20.715637165923294 27.349103143412645 17.824546960170352 0.5
P 18.923322084058277 28.803816839487375 15.14659723887731 0.5
P 20.844688585674 24.28137403847633 16.07172527220873 0.5
A 0.8710950553881973 11.736332993510427 27.406280239783317 2.5
E 3.0189179250647014 12.816406951008382 28.09206239676095 0.5
E -1.276727814288307 10.656259036012472 26.720498082805683 0.5
E 0.12780714102278334 11.699042832949287 29.792937425112463 0.5
E 1.6143829697536112 11.773623154071567 25.019623054454172 0.5
P -0.1702406238490528 13.990673183069145 27.117194935958537 0.5
P 1.9124307346254474 9.481992803951709 27.695365543608098 0.5
A 8.492611984659051 1.1931697879968535 9.860961745261656 2.5
E 10.594637291578422 -0.15539454272366293 9.974380680972509 0.5
E 6.39058667773968 2.54173411871737 9.747542809550804 0.5
E 9.090500216043536 1.9305973966009693 7.548229554790982 0.5
E 7.894723753274567 0.45574217939273765 12.17369393573233 0.5
P 7.278520031040467 -0.7785235877529544 8.918408850097746 0.5
P 9.706703938277636 3.164863163746661 10.803514640425567 0.5
A 24.943346934521912 6.807737402303007 22.608666373246724 2.5
E 26.171246134822116 4.7230463429319105 21.979121505201164 0.5
E 23.71544773422171 8.892428461674104 23.238211241292284 0.5
E 25.4582830737056 6.383460490784564 25.01798782853598 0.5
E 24.428410795338223 7.232014313821451 20.19934491795747 0.5
P 27.059263834229196 8.120769119106814 22.387660979189175 0.5
P 22.82743003481463 5.4947056854992 22.829671767304273 0.5
A 17.371977138964294 14.979862589778541 0.6449546621620069 2.5
E 15.205688433404202 14.353284433896338 1.7241177910425871 0.5
E 19.538265844524386 15.606440745660745 -0.4342084667185734 0.5
E 16.143914795727515 16.434055065407573 -0.9759053333184747 0.5
E 18.600039482201073 13.525670114149507 2.2658146576424887 0.5
P 17.593463312997482 16.91447471069489 2.2128257717615742 0.5
P 17.150490964931105 13.045250468862193 -0.9229164474375603 0.5
A 15.960899899844723 39.01299623487976 32.9264341595878 2.5
E 17.940030784061985 38.73533450387458 31.424453831397848 0.5
E 13.981769015627458 39.29065796588493 34.42841448777775 0.5
E 14.536541387280096 37.78974590817453 31.275718718969028 0.5
E 17.38525841240935 40.236246561584984 34.57714960020657 0.5
P 16.51248286805446 36.85046008458128 34.0530190999408 0.5
P 15.409316931634985 41.175532385178236 31.799849219234797 0.5
A 25.569077851404497 31.52910127641726 23.308072970693903 2.5
E 25.965338633532184 33.70249456966201 24.47826055626611 0.5
E 25.17281706927681 29.355707983172515 22.137885385121695 0.5
E 26.885677406218782 32.34550717148133 21.345919300165402 0.5
E 24.252478296590212 30.712695381353193 25.270226641222404 0.5
P 27.657029719817988 30.601824075476575 24.32326457221808 0.5
P 23.481125982991006 32.45637847735795 22.292881369169727 0.5
A 33.792122118725096 16.386713488476257 32.592263146033886 2.5
E 34.779215368569986 17.621843790216666 30.65574563931366 0.5
E 32.80502886888021 15.151583186735849 34.52878065275411 0.5
E 34.62125499639614 18.16075301164303 34.146393913185655 0.5
E 32.96298924105405 14.612673965309483 31.038132378882114 0.5
P 31.65011707968429 17.642594417531818 32.30144102727581 0.5
P 35.9341271577659 15.130832559420696 32.883085264791966 0.5
A 8.276079963370574 9.484769799598794 24.65453206354063 2.5
E 10.312423163937225 8.728154816208193 25.891803309636693 0.5
E 6.239736762803923 10.241384782989396 23.417260817444564 0.5
E 9.465558418194213 11.576313310691235 23.975866647655323 0.5
E 7.086601508546934 7.393226288506353 25.333197479425934 0.5
P 9.105807252916748 8.343288521558174 22.59090101200394 0.5
P 7.446352673824401 10.626251077639415 26.718163115077317 0.5
70
Properties=species:S:1:pos:R:3:radius:R:1
A 15.874459147533035 16.353446211421257 38.83105814168712 2.5
E 14.148948123226763 17.538342560173806 40.19803742013683 0.5
E 17.599970171839306 15.16854986266871 37.46407886323742 0.5
E 17.475198334484812 16.473442934832 40.74762664860988 0.5
E 14.273719960581259 16.233449488010514 36.914489634764365 0.5
P 15.031698350892047 14.155351256901769 39.67256441650715 0.5
P 16.717219944174023 18.551541165940744 37.989551866867096 0.5
A 19.70168024391493 26.98228716265483 15.348874980676772 2.5
E 18.214784013949522 26.154287058594928 13.517603447290119 0.5
E 21.188576473880335 27.810287266714734 17.180146514063427 0.5
E 21.6889336835221 26.03659525257718 14.162919425867067 0.5
E 17.714426804307756 27.927979072732484 16.534830535486478 0.5
P 20.00161918450947 29.14332456142685 14.128238264440302 0.5
P 19.40174130332039 24.82124976388281 16.569511696913242 0.5
A 0.9881169049576508 11.464468383636794 27.991275673568943 2.5
E -0.6903634617446206 11.583774006688284 29.840186116749724 0.5
E 2.6665972716599224 11.345162760585303 26.14236523038816 0.5
E -0.6606206845806668 12.506387086113504 26.427284056496692 0.5
E 2.636854494495968 10.422549681160083 29.555267290641194 0.5
P 1.8333198506683428 13.733867331758782 28.612130241744474 0.5
P 0.1429139592469587 9.195069435514805 27.37042110539341 0.5
A 8.483599450020877 1.518222770602293 9.980337024946305 2.5
E 10.605869853162904 0.4149148349495939 9.25323322556696 0.5
E 6.361329046878851 2.621530706254992 10.70744082432565 0.5
E 7.162770329789348 -0.2917994937208359 8.871630644608526 0.5
E 9.804428570252407 3.328245034925422 11.089043405284084 0.5
P 8.520731257066922 0.19288092723543016 12.099792197184005 0.5
P 8.446467642974833 2.843564613969156 7.860881852708604 0.5
A 25.189031531742618 6.76560326906877 23.30446366917247 2.5
E 27.186814337928173 8.123568900051486 23.948508080980503 0.5
E 23.191248725557063 5.4076376380860545 22.66041925736444 0.5
E 25.899278445693437 6.856718704754923 20.909208505603225 0.5
E 24.4787846177918 6.674487833382618 25.699718832741716 0.5
P 26.513574162440015 4.668551213813224 23.617448488318356 0.5
P 23.86448890104522 8.862655324324317 22.991478850026585 0.5
A 17.686506310493307 14.641767152664297 0.6641875622134885 2.5
E 19.587158764355035 13.262710814216579 -0.19355591052050758 0.5
E 15.78585385663158 16.020823491112015 1.5219310349474846 0.5
E 17.75135116279114 16.025537344906823 -1.41691195491508 0.5
E 17.621661458195476 13.25799696042177 2.7452870793420567 0.5
P 16.06375697841485 13.081836490599645 -0.42360880420380864 0.5
P 19.309255642571763 16.20169781472895 1.7519839286307857 0.5
A 15.436550898905793 38.892812229241024 32.60633526935678 2.5
E 16.798744931939694 40.02574185671824 30.842561509616555 0.5
E 14.074356865871893 37.759882601763806 34.370109029097 0.5
E 14.069296890305237 37.77851012756591 30.83462781546798 0.5
E 16.803804907506347 40.00711433091614 34.37804272324557 0.5
P 17.02558956814249 36.96283780314524 32.59389250906414 0.5
P 13.847512229669094 40.822786655336806 32.61877802964941 0.5
A 26.02166237953347 31.984399311619025 23.72599568518331 2.5
E 25.848403317622957 33.116892878798595 25.948030702405948 0.5
E 26.194921441443984 30.851905744439456 21.503960667960673 0.5
E 23.547503207602464 32.186672919828524 23.429985922890886 0.5
E 28.495821551464477 31.782125703409527 24.022005447475735 0.5
P 26.335537656381447 34.20398118839664 22.619226240870358 0.5
P 25.707787102685494 29.76481743484141 24.832765129496263 0.5
A 33.70009190579206 16.231013393940326 32.959856655366366 2.5
E 33.27767306568991 18.684494179426608 33.187879370851746 0.5
E 34.1225107458942 13.777532608454043 32.731833939880985 0.5
E 36.117872706736996 16.59909635588606 33.47836502724501 0.5
E 31.282311104847114 15.862930431994593 32.44134828348772 0.5
P 33.224804285387584 15.922878734455507 35.394842221959195 0.5
P 34.17537952619653 16.539148053425148 30.52487108877354 0.5
A 8.683675212749908 9.126034633162964 24.69368767592143 2.5
E 7.407588935185882 10.598516143428013 26.26002161673404 0.5
E 9.959761490313932 7.653553122897916 23.127353735108823 0.5
E 10.644032882066176 9.175426186320664 26.24435149597746 0.5
E 6.723317543433639 9.076643080005265 23.1430238558654 0.5
P 7.801291157722345 7.106292402974805 25.873534997835957 0.5
P 9.56605926777747 11.145776863351124 23.513840354006906 0.5
70
Properties=species:S:1:pos:R:3:radius:R:1
A 15.702229862894018 16.86919139462569 38.761518079708445 2.5
E 15.20902055756104 14.446846550887589 39.134331758573325 0.5
E 16.195439168226997 19.291536238363793 38.388704400843565 0.5
E 14.603641012659248 17.427640557661885 40.93665878100673 0.5
E 16.800818713128788 16.310742231589497 36.58637737841016 0.5
P 17.89308520254408 16.60389912123656 39.936155423916105 0.5
P 13.511374523243958 17.134483668014823 37.586880735500785 0.5
A 19.368185481671844 27.405088628374628 15.07554181079166 2.5
E 20.71317145674652 27.93565474845087 13.036053561479987 0.5
E 18.02319950659717 26.874522508298387 17.115030060103336 0.5
E 21.4482046434794 27.459408693193307 16.46138798446037 0.5
E 17.28816631986429 27.35076856355595 13.68969563712295 0.5
P 19.02975821715768 29.847535950792466 15.487752999198918 0.5
P 19.706612746186007 24.96264130595679 14.663330622384404 0.5
A 1.084495842110827 11.673395936306287 28.63814107886753 2.5
E 0.1833678485713478 11.552018159863422 26.309356895083024 0.5
E 1.9856238356503062 11.794773712749151 30.966925262652037 0.5
E 2.456130423695971 13.664867781370278 28.003587326284865 0.5
E -0.287138739474317 9.681924091242296 29.272694831450195 0.5
P -0.8013957013928901 13.17981796406039 29.289375107798726 0.5
P 2.9703873856145444 10.166973908552183 27.986907049936335 0.5
A 8.558467585086241 1.946885468998885 10.066825078676539 2.5
E 10.673732435147443 2.6520298482512836 8.93615005087102 0.5
E 6.44320273502504 1.2417410897464864 11.197500106482057 0.5
E 8.057609081164163 0.40187590040449783 8.16627616007449 0.5
E 9.05932608900832 3.491895037593272 11.967373997278587 0.5
P 9.793293634837054 0.11229645852290693 11.232795828522464 0.5
P 7.323641535335428 3.781474479474863 8.900854328830613 0.5
A 25.004388716100802 6.387119138535727 23.931156680404342 2.5
E 27.347190565116204 6.014927852526174 23.142009582031292 0.5
E 22.6615868670854 6.75931042454528 24.720303778777392 0.5
E 25.576767910018592 5.3361325323181 26.12610752539455 0.5
E 24.432009522183012 7.438105744753354 21.736205835414136 0.5
P 25.66291855948079 8.624729649811483 24.830844206831276 0.5
P 24.345858872720815 4.149508627259971 23.031469153977408 0.5
A 17.42952799307075 14.013413956146323 0.8864094665747484 2.5
E 17.348000726619368 16.148064412276472 2.1851090988875814 0.5
E 17.51105525952213 11.878763500016175 -0.4122901657380844 0.5
E 19.508722258650014 14.792006930887286 -0.26282688234025553 0.5
E 15.350333727491485 13.23482098140536 2.0356458154897523 0.5
P 18.8152785156427 12.970792064073967 2.6871412842989186 0.5
P 16.0437774704988 15.056035848218679 -0.9143223511494218 0.5
A 15.371321301079497 38.76579320217518 32.36761099552285 2.5
E 15.205997750688528 40.77034465050816 33.85234720598891 0.5
E 15.536644851470466 36.76124175384221 30.882874785056796 0.5
E 13.115989188981104 39.281494637361575 31.420230874409206 0.5
E 17.62665341317789 38.25009176698879 33.3149911166365 0.5
P 16.437222416484083 40.16787220163622 30.593342331693613 0.5
P 14.305420185674912 37.36371420271414 34.14187965935209 0.5
A 26.32860256709139 32.02748343556631 24.152394474184526 2.5
E 28.804678491421818 32.37047203199159 24.114886612685957 0.5
E 23.852526642760964 31.684494839141035 24.189902335683094 0.5
E 26.47981707762945 31.193027765002423 26.504163575450054 0.5
E 26.177388056553333 32.8619391061302 21.800625372918997 0.5
P 26.01847003291493 34.35901566922442 24.999610653597607 0.5
P 26.63873510126785 29.695951201908205 23.305178294771444 0.5
A 33.45078947562799 16.217281926818156 33.113527840289144 2.5
E 35.683550135403834 16.34334131693701 34.231064804474826 0.5
E 31.21802881585215 16.091222536699302 31.995990876103463 0.5
E 34.55968784293348 16.38450149522174 30.879163942681757 0.5
E 32.34189110832251 16.05006235841457 35.34789173789653 0.5
P 33.63820411525284 13.726068036742294 33.020098151493194 0.5
P 33.263374836003145 18.70849581689402 33.206957529085095 0.5
A 8.805482525470216 9.50791648366869 24.59116010209027 2.5
E 8.436297202174309 11.940176467669138 24.146397730374794 0.5
E 9.174667848766124 7.075656499668243 25.035922473805748 0.5
E 6.334121991618331 9.130753036217124 24.579986668119055 0.5
E 11.2768430593221 9.885079931120258 24.602333536061487 0.5
P 8.883452447768212 9.069899241841924 22.131066285366963 0.5
P 8.72751260317222 9.945933725495458 27.05125391881358 0.5
70
Properties=species:S:1:pos:R:3:radius:R:1
A 15.660543268080952 16.927995378660075 38.868883629711156 2.5
E 17.796658005669272 15.773606856224085 39.46419948463714 0.5
E 13.524428530492631 18.082383901096065 38.27356777478517 0.5
E 14.797682361489198 16.523210385379613 41.1800781617856 0.5
E 16.523404174672706 17.332780371940537 36.55768909763671 0.5
P 16.631359874723973 19.108255970535094 39.61318119640283 0.5
P 14.689726661437932 14.747734786785056 38.124586063019485 0.5
A 19.1042719173462 27.38674000811064 14.425551534883937 2.5
E 21.337037816269568 28.16336929943764 13.612161478110128 0.5
E 16.87150601842283 26.610110716783637 15.238941591657746 0.5
E 20.0565351689416 27.0430800327658 16.711397662909093 0.5
E 18.1520086657508 27.730399983455477 12.13970540685878 0.5
P 18.505981736692583 29.73806830615827 15.028298658091137 0.5
P 19.702562097999817 25.03541171006301 13.822804411676737 0.5
A 1.0583679639801558 11.943390177381508 28.891002921913476 2.5
E 1.8642716088625717 11.120844319843924 26.672008188388304 0.5
E 0.2524643190977398 12.765936034919092 31.109997655438647 0.5
E 1.1887489761253471 14.299394524087312 28.065022104960203 0.5
E 0.9279869518349644 9.587385830675704 29.716983738866748 0.5
P -1.3045793707771534 11.792851708708005 28.088620181189196 0.5
P 3.421315298737465 12.09392864605501 29.693385662637755 0.5
A 8.677855015577144 2.2664161250394494 10.43216788691609 2.5
E 10.510346196615783 2.498382779328235 8.747481701683869 0.5
E 6.845363834538505 2.0344494707506637 12.116854072148312 0.5
E 7.044141926007672 3.194210019304722 8.782871057739467 0.5
E 10.311568105146616 1.338622230774177 12.081464716092714 0.5
P 8.20567113996977 -0.04343018176556512 9.600511451508865 0.5
P 9.150038891184519 4.576262431844464 11.263824322323316 0.5
A 24.356923871793352 5.578552938649641 24.09171466105255 2.5
E 26.183892453556737 5.029630338719657 22.475896051016832 0.5
E 22.529955290029967 6.127475538579625 25.707533271088266 0.5
E 22.672421780926825 5.377425318829365 22.25541392685515 0.5
E 26.04142596265988 5.7796805584699165 25.928015395249947 0.5
P 24.083723382924926 3.147867508604506 24.608560704909436 0.5
P 24.630124360661778 8.009238368694776 23.574868617195662 0.5
A 16.655077527866258 13.333749621885422 1.3994741841730227 2.5
E 17.14425697556006 14.402728334428769 -0.8068775511775415 0.5
E 16.165898080172454 12.264770909342076 3.605825919523587 0.5
E 18.619434653688927 14.509057950853958 2.4044375735998127 0.5
E 14.690720402043588 12.158441292916887 0.39451079474623296 0.5
P 15.18810631131667 15.264017697564976 2.0094418930139635 0.5
P 18.122048744415846 11.40348154620587 0.7895064753320818 0.5
A 15.66801032485211 38.90452663979964 32.47678689968946 2.5
E 17.689068483861256 38.23420439309579 33.78674567899258 0.5
E 13.646952165842965 39.574848886503496 31.166828120386338 0.5
E 14.209251295165084 37.69955847897585 34.1108229533628 0.5
E 17.12676935453914 40.10949480062343 30.842750846016113 0.5
P 15.474759163908683 40.9898850782873 33.8420466448732 0.5
P 15.861261485795538 36.81916820131198 31.111527154505715 0.5
A 26.659504048339198 31.75235816953012 24.284352665534538 2.5
E 24.49955813606596 33.0110732570387 24.267921459453493 0.5
E 28.819449960612435 30.49364308202153 24.300783871615582 0.5
E 27.504469721924174 33.17787769975285 22.41247471026674 0.5
E 25.81453837475422 30.32683863930739 26.156230620802337 0.5
P 27.59259925597779 33.37517374667766 25.941399115109824 0.5
P 25.726408840700604 30.129542592382574 22.62730621595925 0.5
A 33.35246229762657 16.402304646936305 32.88662376106237 2.5
E 35.55759747989377 17.519012860410278 32.51200182645613 0.5
E 31.14732711535937 15.285596433462329 33.261245695668606 0.5
E 32.455772210030325 17.478284579340034 30.815823415333195 0.5
E 34.24915238522282 15.326324714532573 34.957424106791535 0.5
P 34.11621992589289 14.441378857666045 31.537014805015918 0.5
P 32.588704669360254 18.363230436206564 34.23623271710882 0.5
A 8.356453492827633 10.200905326216514 24.494736082388265 2.5
E 9.810207569449561 10.383107960314153 26.52042146882764 0.5
E 6.902699416205706 10.018702692118875 22.46905069594889 0.5
E 10.11667056499661 11.335624382853227 23.129434459540263 0.5
E 6.596236420658656 9.0661862695798 25.860037705236266 0.5
P 9.37539163793313 7.98072180618165 23.963181575478952 0.5
P 7.337515347722136 12.421088846251378 25.026290589297577 0.5
70
Properties=species:S:1:pos:R:3:radius:R:1
A 15.10069094360067 16.84300992111363 38.610804007375734 2.5
E 14.37907952679135 17.462141825609308 36.298672383102065 0.5
E 15.82230236040999 16.223878016617952 40.9229356316494 0.5
E 17.38448155545929 17.7441303320009 38.13933561366393 0.5
E 12.816900331742053 15.94188951022636 39.082272401087536 0.5
P 14.384047793687639 19.091266510099484 39.43649457033792 0.5
P 15.8173340935137 14.594753332127778 37.78511344441355 0.5
A 18.852400675310925 26.907418467616893 13.949317246157689 2.5
E 20.793369917338282 28.407962302156953 13.468685784299232 0.5
E 16.911431433283568 25.406874633076832 14.429948708016145 0.5
E 18.91504554171828 27.595921282302807 16.35182416495793 0.5
E 18.78975580890357 26.218915652930978 11.546810327357449 0.5
P 17.278007451806328 28.784738918364187 13.452372678837122 0.5
P 20.42679389881552 25.030098016869598 14.446261813478255 0.5
A 1.5662249952143001 12.07510700378805 29.385037660487384 2.5
E 1.4169843656770225 10.79904625675009 27.24041736673753 0.5
E 1.7154656247515778 13.35116775082601 31.52965795423724 0.5
E 1.599120027172799 14.222366303743886 28.105117578753724 0.5
E 1.5333299632558013 9.927847703832214 30.664957742221045 0.5
P -0.9290996632955391 12.179732376530888 29.49643056874754 0.5
P 4.061549653724139 11.970481631045212 29.273644752227227 0.5
A 8.831817230922038 2.126631664281131 10.717142295386791 2.5
E 10.866963009147703 3.5309013021947564 10.348078011822171 0.5
E 6.796671452696373 0.7223620263675059 11.086206578951412 0.5
E 7.755882957995324 4.011887991753468 11.957373733492622 0.5
E 9.907751503848752 0.24137533680879364 9.476910857280961 0.5
P 7.8568571795810636 2.9774168097546108 8.578072980350516 0.5
P 9.806777282263013 1.2758465188076515 12.856211610423067 0.5
A 23.5910979374173 5.566938743388906 23.71058928609214 2.5
E 24.412143841573897 3.2774642138329564 24.28868097586493 0.5
E 22.7700520332607 7.856413272944856 23.13249759631935 0.5
E 25.286402134885996 6.564507745450312 25.253573331431998 0.5
E 21.8957937399486 4.569369741327501 22.167605240752284 0.5
P 25.234821545970394 5.68166652835356 21.83042699680847 0.5
P 21.947374328864203 5.452210958424253 25.590751575375812 0.5
A 15.988295454653763 12.699299737904333 1.6686786668435545 2.5
E 18.006991552059354 14.112038740041383 2.091803445320937 0.5
E 13.969599357248171 11.286560735767283 1.2455538883661719 0.5
E 14.514142688895243 14.65263541307038 2.179905977666632 0.5
E 17.462448220412284 10.745964062738286 1.1574513560204773 0.5
P 16.03000504020944 13.361604993783903 -0.7416350178266287 0.5
P 15.946585869098087 12.036994482024763 4.078992351513738 0.5
A 15.942735100655474 39.10712239465856 32.44559188526063 2.5
E 18.246567643761402 38.33757418918244 33.03732761408866 0.5
E 13.638902557549546 39.87667060013468 31.853856156432606 0.5
E 15.301247652762475 39.044023465006724 34.86106541632439 0.5
E 16.58422254854847 39.1702213243104 30.03011835419688 0.5
P 16.671329272687398 41.48489742281458 32.70120183803212 0.5
P 15.21414092862355 36.72934736650254 32.18998193248915 0.5
A 27.12759914662273 31.36411725106098 24.449329985348797 2.5
E 29.567599436795092 30.90245326710637 24.737886652017277 0.5
E 24.68759885645037 31.825781235015587 24.160773318680317 0.5
E 27.151906491156723 32.780228169502536 26.509436540766057 0.5
E 27.10329180208874 29.948006332619418 22.389223429931537 0.5
P 27.671481245024005 33.371975869736765 23.062716834376662 0.5
P 26.58371704822146 29.356258632385195 25.83594313632093 0.5
A 33.40472756993997 16.766337936391064 32.473953476941396 2.5
E 33.939679055020015 19.051122824504823 31.611639773200977 0.5
E 32.86977608485993 14.481553048277306 33.336267180681816 0.5
E 30.98127005133094 17.154158174927815 31.99808677493386 0.5
E 35.828185088549 16.378517697854313 32.94982017894893 0.5
P 33.70585970723004 15.828599445323773 30.176135825720394 0.5
P 33.103595432649904 17.704076427458357 34.7717711281624 0.5
A 8.015489079245912 11.223318608351597 24.570268903344 2.5
E 8.023961932725944 11.546947046436294 27.049218851369965 0.5
E 8.007016225765879 10.8996901702669 22.091318955318037 0.5
E 6.743257962804231 9.089914051100637 24.85313456308297 0.5
E 9.287720195687593 13.356723165602558 24.28740324360503 0.5
P 5.863430484060215 12.485796184059328 24.412807245396195 0.5
P 10.167547674431608 9.960841032643867 24.727730561291807 0.5
70
Properties=species:S:1:pos:R:3:radius:R:1
A 14.881984728839916 16.90078572754397 38.29100212371065 2.5
E 12.878678987146847 16.499532342636066 39.73175256233632 0.5
E 16.885290470532986 17.302039112451872 36.85025168508498 0.5
E 14.1906682215841 19.28483791637772 37.99372002247825 0.5
E 15.573301236095732 14.516733538710216 38.588284224943045 0.5
P 16.208200243790536 17.53741032808771 40.312353534496836 0.5
P 13.555769213889295 16.26416112700023 36.26965071292446 0.5
A 18.91415130947258 26.378945181743813 13.838286181493169 2.5
E 16.694013702217177 27.009898208068964 12.877615955337482 0.5
E 21.134288916727982 25.74799215541866 14.798956407648856 0.5
E 18.018574416002174 24.119563588899602 14.424065018426766 0.5
E 19.809728202942985 28.638326774588023 13.252507344559572 0.5
P 19.634519987812208 25.514599708863603 11.60580418363085 0.5
P 18.19378263113295 27.243290654624023 16.070768179355486 0.5
A 1.6419051152586048 11.855087408845113 30.251436546099143 2.5
E -0.167426164882571 10.384152923225633 31.152919800362657 0.5
E 3.4512363953997807 13.326021894464594 29.34995329183563 0.5
E 0.05524008471922759 13.786778277786222 30.21881036470286 0.5
E 3.228570145797982 9.923396539904004 30.284062727495424 0.5
P 2.3192635134243424 12.450840819128581 32.583016155413276 0.5
P 0.964546717092867 11.259333998561646 27.91985693678501 0.5
A 9.182434551591925 1.6393117532882986 10.675838979273534 2.5
E 11.677759440769021 1.6514043729931238 10.523499010779542 0.5
E 6.687109662414828 1.6272191335834734 10.828178947767526 0.5
E 9.334302961270943 1.165522412557855 13.125830743902661 0.5
E 9.030566141912907 2.113101094018742 8.225847214644407 0.5
P 9.199454645411947 4.093976176210025 11.149476907703544 0.5
P 9.165414457771902 -0.8153526696334277 10.202201050843524 0.5
A 23.867777481796992 6.174181179339484 23.482020073106984 2.5
E 25.60736711311078 5.139330419076167 22.01473965730031 0.5
E 22.128187850483204 7.2090319396028 24.949300488913657 0.5
E 23.031445361284856 7.51499863882788 21.54481664431264 0.5
E 24.704109602309128 4.8333637198510875 25.419223501901328 0.5
P 22.278948825576617 4.335352083334277 22.895222785400712 0.5
P 25.456606138017367 8.01301027534469 24.068817360813256 0.5
A 15.595831909555596 11.966474844072284 1.317769709027273 2.5
E 15.825612473312663 13.039957425681163 -0.9283015363928828 0.5
E 15.366051345798528 10.892992262463405 3.563840954447429 0.5
E 18.005679839772217 11.304828272373323 1.248079197541826 0.5
E 13.185983979338973 12.628121415771245 1.3874602205127202 0.5
P 16.220198665358286 14.125145490822913 2.4133550288938173 0.5
P 14.971465153752906 9.807804197321655 0.22218438916072913 0.5
A 16.146836641387154 39.606994218417356 32.609194927392764 2.5
E 18.370952174059223 40.08435710906983 31.57216321719687 0.5
E 13.922721108715082 39.12963132776488 33.64622663758866 0.5
E 16.556864985989623 41.392399045864686 34.31043164188826 0.5
E 15.736808296784686 37.821589390970026 30.907958212897274 0.5
P 15.081385162460748 41.290577977175076 31.099109210190644 0.5
P 17.21228812031356 37.923410459659635 34.11928064459489 0.5
A 27.837885325364883 32.046328818089385 24.612600481048 2.5
E 26.819040749616025 34.263632061043815 24.068981074429733 0.5
E 28.85672990111374 29.829025575134956 25.156219887666264 0.5
E 29.947774438330267 32.73347597973835 23.460994337772874 0.5
E 25.7279962123995 31.35918165644042 25.764206624323123 0.5
P 28.709850726890863 32.974442554127506 26.763944533383675 0.5
P 26.965919923838904 31.118215082051265 22.46125642871232 0.5
A 33.43790075873459 16.7747869817429 31.823171560453847 2.5
E 33.77513853266014 19.25018439702083 31.916329062965225 0.5
E 33.10066298480905 14.299389566464969 31.73001405794247 0.5
E 30.96809710753155 17.103551636919047 32.02807086746122 0.5
E 35.90770440993764 16.44602232656675 31.618272253446474 0.5
P 33.247268630427385 16.894459192148332 29.333324586498456 0.5
P 33.6285328870418 16.655114771337466 34.31301853440924 0.5
A 7.819070437424806 12.451819889570642 24.796101217087074 2.5
E 8.596606475946123 13.74825323986824 26.787256227888104 0.5
E 7.041534398903488 11.155386539273042 22.804946206286044 0.5
E 7.856891783978089 14.539860297472483 23.421817112283655 0.5
E 7.781249090871523 10.3637794816688 26.170385321890492 0.5
P 10.194782384304478 11.9942744566281 24.166303692284103 0.5
P 5.443358490545133 12.909365322513183 25.425898741890045 0.5
70
Properties=species:S:1:pos:R:3:radius:R:1
A 14.697634113587398 17.190973791720157 37.936713895765145 2.5
E 17.06701793224247 16.398182486743625 38.02332952166207 0.5
E 12.328250294932324 17.98376509669669 37.85009826986822 0.5
E 14.40415914931445 16.576689562609037 40.34223407468919 0.5
E 14.991109077860346 17.80525802083128 35.5311937168411 0.5
P 15.439181661112777 19.48098183376267 38.61196970073104 0.5
P 13.95608656606202 14.900965749677646 37.26145809079925 0.5
A 18.717313774712515 25.853153702694645 13.414560829737537 2.5
E 17.280302868909747 25.38877296083903 11.422238018745755 0.5
E 20.154324680515284 26.317534444550258 15.406883640729319 0.5
E 20.646244717988257 24.734673125741242 12.283973984310792 0.5
E 16.788382831436774 26.971634279648047 14.545147675164282 0.5
P 19.398654418354095 28.040241201075144 12.41334996196269 0.5
P 18.035973131070936 23.666066204314145 14.415771697512385 0.5
A 1.4983579741902064 11.970229300218355 30.77955799361737 2.5
E 2.718160779369089 11.788731469341366 28.604899479306653 0.5
E 0.27855516901132393 12.151727131095344 32.95421650792809 0.5
E 2.3701032173363377 14.294675144544467 31.074535531485243 0.5
E 0.6266127310440753 9.645783455892243 30.484580455749498 0.5
P -0.5021772910648823 12.872454357607833 29.58212382077582 0.5
P 3.4988932394452954 11.068004242828877 31.97699216645892 0.5
A 10.267932905202764 1.2309091694814522 10.414738008186793 2.5
E 12.24889016889335 2.385088185559363 9.417903459088702 0.5
E 8.286975641512178 0.07673015340354161 11.411572557284885 0.5
E 11.780990143556464 -0.4611108013507219 11.462462309598775 0.5
E 8.754875666849065 2.9229291403136264 9.367013706774811 0.5
P 10.458893929748728 2.6644150875540547 12.454001274651876 0.5
P 10.076971880656801 -0.20259674859114996 8.37547474172171 0.5
A 24.450262547606627 6.87187337425212 23.182940689840276 2.5
E 26.755600824588022 6.277165294864197 22.4202233575361 0.5
E 22.144924270625232 7.4665814536400426 23.945658022144453 0.5
E 23.83363077763011 7.486954169610973 20.839558331914375 0.5
E 25.066894317583145 6.256792578893267 25.526323047766176 0.5
P 23.70515806571023 4.522831459876504 22.762439327694498 0.5
P 25.195367029503025 9.220915288627737 23.603442051986054 0.5
A 15.602872430484654 11.45704707566509 1.2613111797977974 2.5
E 16.291112769570677 12.832840471036263 3.2319754761479476 0.5
E 14.91463209139863 10.081253680293916 -0.7093531165523528 0.5
E 15.002480451964793 13.540346754235259 0.016565454197641438 0.5
E 16.203264409004515 9.37374739709492 2.506056905397953 0.5
P 17.930071327825658 11.587641801913549 0.35738070144654277 0.5
P 13.275673533143651 11.32645234941663 2.165241658149052 0.5
A 16.743325827591054 40.17768410138906 32.61247635392743 2.5
E 18.085409830410615 42.25832451829371 32.26643302583738 0.5
E 15.401241824771493 38.09704368448441 32.958519682017474 0.5
E 15.278448550622148 41.39224611879423 34.23388736576059 0.5
E 18.20820310455996 38.96312208398389 30.991065342094267 0.5
P 15.225780081067093 40.845347610513606 30.74130550502359 0.5
P 18.260871574115015 39.51002059226452 34.483647202831264 0.5
A 28.375195859001966 32.748755287685604 24.58821263410928 2.5
E 29.449200870070605 33.14836832863985 26.810108818385192 0.5
E 27.301190847933327 32.34914224673136 22.366316449833366 0.5
E 27.318928183641926 35.01229072136458 24.691682139135363 0.5
E 29.431463534362006 30.48521985400663 24.484743129083196 0.5
P 30.370393050807845 33.73197284142442 23.446953939583405 0.5
P 26.379998667196087 31.765537733946786 25.729471328635153 0.5
A 33.534710999627656 17.232335064280864 31.48620312731167 2.5
E 33.54962515468175 19.706613785792246 31.843585802124217 0.5
E 33.51979684457356 14.758056342769482 31.12882045249912 0.5
E 31.173143482824493 17.129020428303235 32.300036617390624 0.5
E 35.89627851643082 17.335649700258493 30.67236963723271 0.5
P 32.71448150030426 17.57478344618675 29.149548965016596 0.5
P 34.35494049895105 16.88988668237498 33.82285728960674 0.5
A 7.802083275870912 13.244775173743891 24.98705999597139 2.5
E 9.704514750052844 12.252489713432508 26.27007365579658 0.5
E 5.8996518016889805 14.237060634055274 23.7040463361462 0.5
E 8.63828263435369 12.150309861197588 22.90069561923674 0.5
E 6.965883917388134 14.339240486290194 27.07342437270604 0.5
P 6.412290083012206 11.22796699127115 25.488018713029046 0.5
P 9.19187646872962 15.261583356216631 24.486101278913733 0.5
70
Properties=species:S:1:pos:R:3:radius:R:1
A 14.44087003851741 17.73046429229809 37.628221161771386 2.5
E 16.26651049176266 18.590930737508298 39.10356330247715 0.5
E 12.615229585272159 16.869997847087884 36.15287902106562 0.5
E 15.767108155709813 15.655527735783073 37.19725626419385 0.5
E 13.114631921325007 19.805400848813107 38.059186059348924 0.5
P 13.364705835442019 16.633087518757943 39.59992976724893 0.5
P 15.517034241592802 18.82784106583824 35.65651255629384 0.5
A 18.14982364547752 25.617336981508103 12.992922384349216 2.5
E 16.596796869431977 24.09102716049656 11.764717937536698 0.5
E 19.702850421523067 27.143646802519648 14.221126831161733 0.5
E 18.46779901362497 26.967474819501934 10.91301385663229 0.5
E 17.831848277330074 24.267199143514272 15.072830912066141 0.5
P 16.21669160184009 27.065613940070175 13.637510898954558 0.5
P 20.082955689114954 24.16906002294603 12.348333869743874 0.5
A 1.0597124075758377 12.17547666037804 30.876866148179055 2.5
E -0.08496652248398084 10.17685807459333 31.849097548429295 0.5
E 2.2043913376356565 14.17409524616275 29.904634747928814 0.5
E -0.998670988080995 13.541286720423212 31.26108051069451 0.5
E 3.1180958032326704 10.809666600332868 30.4926517856636 0.5
P 1.8980249647768292 12.800045814623456 33.147801071950276 0.5
P 0.22139985037484622 11.550907506132624 28.605931224407833 0.5
A 10.870299724144008 0.8306246259221046 10.028570892444195 2.5
E 12.336813504339409 2.7266716858275313 10.73874191348037 0.5
E 9.403785943948607 -1.0654224339833218 9.31839987140802 0.5
E 12.391490657692009 -0.7798897479206326 11.187113768360264 0.5
E 9.349108790596008 2.441138999764842 8.870028016528126 0.5
P 9.534142743775707 1.0781099755258814 12.12700734026508 0.5
P 12.20645670451231 0.5831392763183277 7.9301344446233095 0.5
A 24.798986540651526 7.284661181960308 22.97299788031091 2.5
E 26.37622961245339 9.128764773232179 22.37167746895489 0.5
E 23.221743468849663 5.440557590688437 23.57431829166693 0.5
E 23.260293456890064 8.002323672526225 21.137954517438647 0.5
E 26.33767962441299 6.5669986913943905 24.808041243183172 0.5
P 25.979972521279507 5.756838386510823 21.38522282720444 0.5
P 23.618000560023546 8.812483977409794 24.56077293341738 0.5
A 15.360917837613318 10.981190195065798 1.3195326152425906 2.5
E 13.46161636505528 9.36615284806248 1.134307659782782 0.5
E 17.260219310171355 12.596227542069116 1.5047575707023992 0.5
E 16.307188288885595 10.114431898302257 -0.8259981554624718 0.5
E 14.41464738634104 11.847948491829339 3.465063385947653 0.5
P 14.039091014845086 12.681303256828981 0.04973364381664647 0.5
P 16.68274466038155 9.281077133302615 2.5893315866685347 0.5
A 16.74575993768742 0.10007386276127499 32.813171590166405 2.5
E 15.440162635456716 0.8189176197186258 34.82032861877386 0.5
E 18.051357239918126 -0.6187698941960759 30.806014561558957 0.5
E 15.237575241090346 -1.8748836317476016 32.539453092745156 0.5
E 18.253944634284494 2.0750313572701518 33.086890087587655 0.5
P 15.238844344379277 1.4538857211683427 31.348112258030636 0.5
P 18.252675530995564 -1.2537379956457928 34.27823092230217 0.5
A 28.518154202900025 33.1419069252004 24.845040539217976 2.5
E 30.72218976561323 33.034375427580805 26.020057226468097 0.5
E 26.31411864018682 33.24943842282 23.670023851967855 0.5
E 27.34309645108965 32.71593491061118 27.01017035581056 0.5
E 29.6932119547104 33.56787893978962 22.679910722625394 0.5
P 28.411072373410097 35.60300115740842 25.27112581470471 0.5
P 28.625236032389953 30.680812692992387 24.41895526373124 0.5
A 33.711167407955834 17.321741972730695 31.026390094885837 2.5
E 32.16846628652462 19.05949900406714 31.948492990433085 0.5
E 35.25386852938705 15.583984941394252 30.10428719933859 0.5
E 33.34968043265369 15.919472236494773 33.06427300455576 0.5
E 34.07265438325798 18.724011708966618 28.988507185215916 0.5
P 31.77741447217971 16.197535547344955 29.909806243802706 0.5
P 35.64492034373196 18.445948398116435 32.14297394596897 0.5
A 7.596759359008755 13.456915853030177 25.689083381395292 2.5
E 6.704621535630045 12.028403677188361 27.536633940262384 0.5
E 8.488897182387465 14.885428028871992 23.8415328225282 0.5
E 5.801540422272413 12.611394294410525 24.168464341959723 0.5
E 9.391978295745096 14.302437411649828 27.20970242083086 0.5
P 6.103012702683911 15.326259656984494 26.413151519996397 0.5
P 9.090506015333599 11.58757204907586 24.965015242794188 0.5
70
Properties=species:S:1:pos:R:3:radius:R:1
A 13.945835698414434 17.948412893791826 37.91900426088621 2.5
E 16.35780218629547 17.469737298253943 38.3698782295025 0.5
E 11.533869210533398 18.42708848932971 37.468130292269926 0.5
E 14.517523559985683 20.321853091488897 37.38052991898281 0.5
E 13.374147836843186 15.574972696094754 38.457478602789614 0.5
P 14.270782848381069 17.32579639690738 35.51967976271252 0.5
P 13.6208885484478 18.571029390676273 40.3183287590599 0.5
A 17.81339845445954 25.71480310670235 12.7691326132893 2.5
E 17.594531276851054 24.07795984239819 10.892209256657853 0.5
E 18.03226563206803 27.351646371006513 14.646055969920745 0.5
E 15.542184504631539 26.618911546584336 12.245515269189898 0.5
E 20.084612404287544 24.810694666820368 13.2927499573887 0.5
P 16.79178974625799 24.055486362666688 14.33533298051263 0.5
P 18.835007162661093 27.374119850738015 11.202932246065968 0.5
A 0.8780901143345429 12.052098933087212 30.600315932045223 2.5
E 3.1297461690891426 11.187093905198934 31.257439446169073 0.5
E -1.3735659404200566 12.91710396097549 29.943192417921374 0.5
E 1.0959932611855614 13.893314988099561 32.27734952066434 0.5
E 0.6601869674835243 10.210882878074862 28.923282343426106 0.5
P 1.9423096545041938 13.505264353984739 28.86660689364566 0.5
P -0.18612942583510816 10.598933512189685 32.33402497044479 0.5
A 11.352861023925263 0.272694364448715 9.928731197161389 2.5
E 12.221068744281814 -0.0555271546759063 12.250042462092354 0.5
E 10.484653303568711 0.6009158835733363 7.607419932230423 0.5
E 9.595902134181657 -1.4573129890966092 10.34124788340404 0.5
E 13.109819913668868 2.0027017179940394 9.516214510918736 0.5
P 9.800665542014947 2.0473338182705962 10.760202179742606 0.5
P 12.905056505835578 -1.5019450893731665 9.09726021458017 0.5
A 25.163456633329655 7.476911563479424 23.20993131469871 2.5
E 23.25904265620173 9.064955658992277 23.52824461072749 0.5
E 27.067870610457582 5.888867467966572 22.89161801866993 0.5
E 24.181179704933108 6.735105343016341 21.03395898784704 0.5
E 26.145733561726203 8.218717783942509 25.38590364155038 0.5
P 26.451221922371793 9.25956113139545 22.020889230351326 0.5
P 23.875691344287517 5.694261995563398 24.398973399046096 0.5
A 15.502453238791407 10.50623679150562 1.1757606146673902 2.5
E 15.780899819604482 12.777129840294235 2.1834868982378417 0.5
E 15.224006657978332 8.235343742717005 0.16803433109693877 0.5
E 16.63818838793674 11.291768121428554 -0.9082370342533079 0.5
E 14.366718089646074 9.720705461582686 3.2597582635880884 0.5
P 17.712107775734005 9.816319919212505 2.119922431675444 0.5
P 13.292798701848811 11.196153663798734 0.23159879765933644 0.5
A 15.964915146462555 0.21891453853083506 33.09258207247336 2.5
E 15.776811249915458 -1.0690672117927562 35.226995325555876 0.5
E 16.153019043009653 1.5068962888544264 30.958168819390853 0.5
E 14.208005064586962 -1.231144308026499 32.06272950743224 0.5
E 17.72182522833815 1.6689733850881692 34.12243463751449 0.5
P 14.196332694806774 1.7963911159643249 33.88862463373565 0.5
P 17.733497598118337 -1.3585620389026547 32.29653951121107 0.5
A 28.27435957067331 33.66158000939334 25.139245224676415 2.5
E 29.27543832058701 34.58382549272007 27.236220333006454 0.5
E 27.273280820759613 32.739334526066614 23.042270116346376 0.5
E 29.19468041609367 31.404009697103668 25.69276652196691 0.5
E 27.354038725252952 35.91915032168301 24.58572392738592 0.5
P 26.176539064062446 33.11127141092076 26.38275218826414 0.5
P 30.372180077284177 34.21188860786592 23.89573826108869 0.5
A 33.72035859070295 17.698065644490026 30.750733411901493 2.5
E 33.245812669852974 16.731840802137782 33.00710566023004 0.5
E 34.19490451155293 18.66429048684227 28.494361163572947 0.5
E 36.171441224094146 17.633602780532986 31.238625268217767 0.5
E 31.26927595731176 17.762528508447065 30.26284155558522 0.5
P 33.850742996572414 15.393232875460345 29.791178403830443 0.5
P 33.58997418483349 20.002898413519706 31.710288419972542 0.5
A 7.185614268663618 13.444769490233512 25.811506961627465 2.5
E 5.657952485946564 15.352048616803708 26.339271881811438 0.5
E 8.713276051380673 11.537490363663315 25.283742041443492 0.5
E 6.229070842122461 13.316768297586489 23.50528919918107 0.5
E 8.142157695204775 13.572770682880535 28.11772472407386 0.5
P 8.918032852830873 15.055949811622767 25.00353182512798 0.5
P 5.453195684496363 11.833589168844256 26.61948209812695 0.5
70
Properties=species:S:1:pos:R:3:radius:R:1
A 13.79225866155035 18.02353582296029 38.031335924701274 2.5
E 16.067690276240157 18.40410850537194 38.99444308398972 0.5
E 11.516827046860545 17.64296314054864 37.068228765412826 0.5
E 13.418531872496807 16.156948001319755 39.651884656226336 0.5
E 14.165985450603895 19.890123644600827 36.41078719317621 0.5
P 12.826474392671226 19.6424905281654 39.67336101844387 0.5
P 14.758042930429475 16.404581117755182 36.38931083095868 0.5
A 17.3072600128846 26.10315002576349 13.132129796494366 2.5
E 17.49651213664119 23.68119105588967 13.72229789280453 0.5
E 17.118007889128013 28.52510899563731 12.541961700184203 0.5
E 14.989811194681538 25.71414009147605 12.278840721188761 0.5
E 19.624708831087666 26.49215996005093 13.985418871799972 0.5
P 16.38877506000631 26.585629060825557 15.406684559972867 0.5
P 18.225744965762892 25.620670990701424 10.857575033015866 0.5
A 0.4373339261631474 12.039767009691921 30.292679661403586 2.5
E 1.8094899121261028 10.125409371122837 29.45457299645115 0.5
E -0.9348220597998078 13.954124648261006 31.13078632635602 0.5
E 1.8799411845260054 13.632881480242744 29.015624227274028 0.5
E -1.0052733321997105 10.446652539141098 31.569735095533144 0.5
P -1.0746423462380725 11.822462809610021 28.31361254876644 0.5
P 1.9493101985643675 12.257071209773821 32.271746774040736 0.5
A 11.515316475095606 39.81273430637083 10.459659465912656 2.5
E 11.395886439436445 37.80226493667235 11.940790581001819 0.5
E 11.634746510754766 41.823203676069305 8.978528350823494 0.5
E 9.103778653790464 39.52065896512224 9.86874717847231 0.5
E 13.926854296400748 40.10480964761942 11.050571753353003 0.5
P 10.867071303115193 41.26968485753491 12.385035607986033 0.5
P 12.163561647076019 38.355783755206744 8.53428332383928 0.5
A 25.48374127315315 7.671759596560884 23.049679409247624 2.5
E 24.17607567348537 6.965746972840127 25.060041778223546 0.5
E 26.79140687282093 8.37777222028164 21.0393170402717 0.5
E 24.515625428836277 5.767391416040956 21.751167358857685 0.5
E 26.451857117470023 9.576127777080812 24.34819145963756 0.5
P 23.58564686258497 9.129472877069842 22.32696950866533 0.5
P 27.38183568372133 6.214046316051926 23.77238930982992 0.5
A 15.673411105922755 10.4465176109834 1.7443954469671372 2.5
E 14.024651296957563 8.640701768462005 1.2241837254137078 0.5
E 17.322170914887945 12.252333453504797 2.2646071685205666 0.5
E 16.5692617474422 10.299610309719196 -0.5849542204134901 0.5
E 14.777560464403306 10.593424912247606 4.073745114347765 0.5
P 14.021429653111605 12.169145657816433 1.0004129929845473 0.5
P 17.325392558733903 8.723889564150369 2.488377900949727 0.5
A 15.133288904163706 0.45586740887141153 33.32416583054398 2.5
E 15.115454640199646 0.6247064967879614 30.829937432538365 0.5
E 15.151123168127766 0.28702832095486164 35.8183942285496 0.5
E 12.81833593629615 1.3963768153058642 33.4043831165041 0.5
E 17.448241872031264 -0.48464199756304105 33.243948544583866 0.5
P 14.189533270756755 -1.8543134106310628 33.17453332868418 0.5
P 16.077044537570657 2.7660482283738856 33.47379833240379 0.5
A 27.87172807598918 34.28039456715038 24.535298710865824 2.5
E 29.45100085192767 33.696048560206826 26.383118302533227 0.5
E 26.292455300050687 34.864740574093936 22.68747911919842 0.5
E 29.629627064399987 35.715827985254386 23.486813113093618 0.5
E 26.11382908757837 32.84496114904638 25.58378430863803 0.5
P 28.687625524033365 32.31874458655736 23.21763384151717 0.5
P 27.055830627944992 36.242044547743404 25.852963580214478 0.5
A 33.37712222606257 17.551301983933588 30.409530484009323 2.5
E 34.587560601496655 15.394991914844578 30.041881432299533 0.5
E 32.16668385062848 19.707612053022597 30.777179535719114 0.5
E 35.3404998561608 18.807548501894367 29.505653850976614 0.5
E 31.41374459596434 16.29505546597281 31.313407117042033 0.5
P 32.41276377563678 17.402400768162757 28.107826504989518 0.5
P 34.34148067648835 17.70020319970442 32.71123446302913 0.5
A 6.4118247375924975 13.641159018133498 25.810303639914377 2.5
E 5.64204381055942 16.007069498736552 26.05505846039812 0.5
E 7.181605664625575 11.275248537530445 25.565548819430635 0.5
E 4.057339481912482 12.919698609957461 25.37914930534126 0.5
E 8.766309993272513 14.362619426309536 26.241457974487492 0.5
P 6.74922139608635 14.004425417912502 23.359956518049785 0.5
P 6.074428079098645 13.277892618354494 28.26065076177897 0.5
70
Properties=species:S:1:pos:R:3:radius:R:1
A 14.435669422278307 18.368515261982314 37.91560058674162 2.5
E 16.722319777970093 18.32244387196482 36.90609200439223 0.5
E 12.149019066586522 18.41458665199981 38.92510916909101 0.5
E 13.482494996458355 19.099782405421728 35.723180262330864 0.5
E 15.38884384809826 17.6372481185429 40.10802091115237 0.5
P 14.099978098622154 15.97830067079005 37.26430530557173 0.5
P 14.77136074593446 20.75872985317458 38.566895867911505 0.5
A 16.81711095184275 26.112087973069386 13.190057516535433 2.5
E 16.32637111533243 25.76366389000365 15.616531310171517 0.5
E 17.30785078835307 26.460512056135123 10.763583722899348 0.5
E 14.566974983719142 27.1579987702668 12.885166176442988 0.5
E 19.067246919966358 25.06617717587197 13.494948856627877 0.5
P 17.78976841355233 28.355895287133304 13.708966178570481 0.5
P 15.84445349013317 23.868280659005467 12.671148854500384 0.5
A 40.050140087606565 12.180351279389665 30.52440875605054 2.5
E 41.48795835786764 10.13670156324048 30.445831027740898 0.5
E 38.61232181734549 14.22400099553885 30.602986484360184 0.5
E 41.528835708581056 13.285513999716311 28.83856338291854 0.5
E 38.57144446663207 11.075188559063019 32.21025412918254 0.5
P 38.637292649907145 11.257252585162949 28.680025141261407 0.5
P 41.462987525305984 13.103449973616382 32.36879237083967 0.5
A 12.007646488469627 39.47387541989363 10.582052203769114 2.5
E 10.988734806607466 37.238784121472584 10.117094278483563 0.5
E 13.026558170331787 41.70896671831468 11.047010129054666 0.5
E 9.72952278272243 40.50238543499653 10.630213704411954 0.5
E 14.285770194216823 38.44536540479073 10.533890703126275 0.5
P 11.85941907576883 39.03055382493796 13.037962340066548 0.5
P 12.155873901170423 39.9171970148493 8.126142067471681 0.5
A 25.95349444810142 7.507884599915546 23.001397719180474 2.5
E 25.1179533190256 8.06856538629375 25.289957982186696 0.5
E 26.78903557717724 6.947203813537342 20.712837456174253 0.5
E 27.734713255460683 6.0686429816500995 24.00431502612277 0.5
E 24.172275640742157 8.947126218180994 21.998480412238177 0.5
P 24.41105139179936 5.542122503414277 22.919857557133852 0.5
P 27.49593750440348 9.473646696416814 23.082937881227096 0.5
A 15.695774726274845 10.41710032961538 2.420064402187446 2.5
E 18.185077111695886 10.610136413741646 2.293136453476249 0.5
E 13.206472340853804 10.224064245489114 2.546992350898643 0.5
E 15.554376397679011 10.603903677327756 -0.06893359338335614 0.5
E 15.837173054870679 10.230296981903004 4.909062397758248 0.5
P 15.878477070565058 7.931573910622742 2.223142402699796 0.5
P 15.513072381984632 12.902626748608018 2.616986401675096 0.5
A 14.184974689920525 0.2571406540414385 33.221106821618235 2.5
E 15.698484031080733 1.8406271975341864 34.42603828887907 0.5
E 12.671465348760316 -1.3263458894513094 32.0161753543574 0.5
E 14.634006603015072 -1.4895019328666388 34.95246756237069 0.5
E 13.735942776825977 2.0037832409495158 31.489746080865782 0.5
P 12.246506269945462 1.0888918429036036 34.56294516679359 0.5
P 16.123443109895586 -0.5746105348207268 31.87926847644288 0.5
A 27.757899063825633 34.54896176187336 23.552375553835567 2.5
E 26.964521574009883 33.270697815611534 25.549021101333153 0.5
E 28.551276553641383 35.82722570813518 21.55573000633798 0.5
E 29.500922833088715 35.661627996095774 24.95731042457028 0.5
E 26.01487529456255 33.43629552765094 22.147440683100854 0.5
P 29.364890133632404 32.71102402220164 23.01426351470911 0.5
P 26.150907994018862 36.386899501545074 24.090487592962024 0.5
A 32.98161744078688 17.881705814039012 30.053851451594454 2.5
E 32.708355204873726 18.591314780043295 27.672300934433153 0.5
E 33.25487967670003 17.17209684803473 32.435401968755755 0.5
E 33.34549586184356 20.263213036190553 30.72169562917671 0.5
E 32.617739019730195 15.500198591887472 29.386007274012197 0.5
P 30.52338225164931 18.155345113496455 30.41744640298872 0.5
P 35.439852629924445 17.60806651458157 29.69025650020019 0.5
A 5.728363905738133 13.290573216322072 25.6072048603267 2.5
E 7.237721093027918 13.058502743459153 23.627815010700516 0.5
E 4.219006718448348 13.52264368918499 27.586594709952884 0.5
E 3.7357634789577476 13.06848868417463 24.113812078846625 0.5
E 7.720964332518519 13.512657748469513 27.100597641806775 0.5
P 5.7655717056275195 10.811294741400921 25.92625630354763 0.5
P 5.691156105848747 15.769851691243222 25.28815341710577 0.5
70
Properties=species:S:1:pos:R:3:radius:R:1
A 14.721952622928393 18.230200695982063 38.40616786475724 2.5
E 14.544220417743194 20.409981339890766 39.61735224695577 0.5
E 14.899684828113593 16.05042005207336 37.19498348255872 0.5
E 12.501579103217859 17.539169374537057 39.3240007175964 0.5
E 16.942326142638926 18.92123201742707 37.48833501191809 0.5
P 13.586896370485853 19.240662005099626 36.421069568307374 0.5
P 15.857008875370934 17.2197393868645 40.39126616120711 0.5
A 16.454460198810978 25.842994124911545 13.408902042847307 2.5
E 18.60597471724658 26.872252778234845 14.158309743315339 0.5
E 14.302945680375377 24.813735471588245 12.659494342379276 0.5
E 17.55516582415211 25.078849599321813 11.298326227967758 0.5
E 15.353754573469844 26.607138650501277 15.519477857726857 0.5
P 17.094329250495818 23.69666941309108 14.519693575100588 0.5
P 15.814591147126135 27.98931883673201 12.298110510594027 0.5
A 39.43686589113423 12.55230290761434 31.260128466457505 2.5
E 41.70093002825377 11.564209551470741 30.87583027162233 0.5
E 37.17280175401469 13.54039626375794 31.64442666129268 0.5
E 40.17414028088154 14.670890279409276 30.156491740766793 0.5
E 38.69959150138693 10.433715535819404 32.36376519214822 0.5
P 38.674999723601225 11.666154462027793 29.050083020057667 0.5
P 40.19873205866724 13.438451353200888 33.47017391285734 0.5
A 11.798984188537 39.52114963682127 10.441820762856597 2.5
E 12.538781346933655 40.64325939128132 8.33384309139701 0.5
E 11.059187030140345 38.39903988236122 12.549798434316184 0.5
E 11.223161141434836 41.746669326240635 11.424414234456654 0.5
E 12.374807235639164 37.295629947401906 9.459227291256541 0.5
P 9.481414775800339 39.3263887296795 9.524792842782677 0.5
P 14.116553601273662 39.71591054396304 11.358848682930518 0.5
A 25.969648408110643 7.484551790199164 22.92215907385842 2.5
E 23.740573439665322 6.706979275329613 22.09959857810617 0.5
E 28.198723376555964 8.262124305068713 23.74471956961067 0.5
E 24.97210667252668 9.692602113696115 23.53813330601054 0.5
E 26.967190143694605 5.276501466702212 22.3061848417063 0.5
P 25.434732273729857 6.607115323538076 25.201187370338012 0.5
P 26.50456454249143 8.361988256860252 20.64313077737883 0.5
A 15.528891287769783 10.325652157199762 3.135205858588926 2.5
E 16.352126532467604 12.233086444852859 1.7445304219127336 0.5
E 14.705656043071963 8.418217869546666 4.525881295265119 0.5
E 17.35819677470691 8.87928720339316 2.234278638518613 0.5
E 13.699585800832656 11.772017111006365 4.0361330786592395 0.5
P 17.020844761357655 11.046570223756028 5.007197304606705 0.5
P 14.036937814181911 9.604734090643497 1.2632144125711473 0.5
A 13.478133663517767 39.999139516151075 33.4182497133389 2.5
E 15.053387255375354 38.072639311511466 33.657358648472 0.5
E 11.90288007166018 41.925639720790684 33.179140778205806 0.5
E 12.566223207856027 38.99296616077212 31.31919409240423 0.5
E 14.390044119179507 41.00531287153003 35.51730533427357 0.5
P 11.76436721437957 38.763739928792326 34.75495926195418 0.5
P 15.191900112655963 41.234539103509825 32.08154016472363 0.5
A 27.45804669205386 35.021788212534425 23.17240337846589 2.5
E 25.808214897809652 35.343815196127785 25.022904303226472 0.5
E 29.107878486298066 34.699761228941064 21.32190245370531 0.5
E 27.59679401543615 37.49893764165569 22.86502757255477 0.5
E 27.31929936867157 32.54463878341316 23.479779184377012 0.5
P 29.331226937240174 35.12193474339306 24.82502748618119 0.5
P 25.584866446867544 34.92164168167579 21.51977927075059 0.5
A 33.041935250020266 18.34971070101637 29.287998345888333 2.5
E 31.453927377436422 17.528819588247725 27.540323096424 0.5
E 34.62994312260411 19.170601813785016 31.035673595352666 0.5
E 31.438330940648733 20.170804472817107 29.88972144937918 0.5
E 34.6455395593918 16.528616929215634 28.686275242397485 0.5
P 31.96644270444972 16.846462466263688 30.971316654805623 0.5
P 34.117427795590814 19.852958935769053 27.604680036971043 0.5
A 5.207059673555447 12.630126606804236 25.535057154905136 2.5
E 3.3520469111062132 13.642368416537565 26.87083190005473 0.5
E 7.062072436004681 11.617884797070907 24.199282409755543 0.5
E 6.70039202508579 12.723851390860004 27.53784874484348 0.5
E 3.713727322025104 12.536401822748468 23.532265564966792 0.5
P 4.446213999962884 10.346142766344173 26.20924679995613 0.5
P 5.96790534714801 14.9141104472643 24.860867509854142 0.5
70
Properties=species:S:1:pos:R:3:radius:R:1
A 14.890712285596523 17.81121006167464 39.08046300320355 2.5
E 15.423548340488974 18.874389225366563 41.279493654308396 0.5
E 14.357876230704072 16.748030897982716 36.8814323520987 0.5
E 12.821253730425017 16.812131364099894 40.06493394969229 0.5
E 16.96017084076803 18.810288759249385 38.095992056714806 0.5
P 13.593242815036719 19.84135582539318 38.41331897750777 0.5
P 16.18818175615633 15.781064297956101 39.747607028899324 0.5
A 16.18715544188375 25.81321247490157 13.41127267731501 2.5
E 17.94119498530739 25.343396223826954 15.129591032665132 0.5
E 14.433115898460109 26.283028725976184 11.692954321964887 0.5
E 15.297396411378289 23.493013993915298 13.68514833607964 0.5
E 17.07691447238921 28.13341095588784 13.137397018550379 0.5
P 14.643888080814728 26.61692367866569 15.206369931840197 0.5
P 17.73042280295277 25.00950127113745 11.616175422789823 0.5
A 39.16019634831331 12.716643429413363 31.966478782130686 2.5
E 39.886629536662355 15.100009980450034 32.17107278562056 0.5
E 38.43376315996427 10.333276878376692 31.761884778640812 0.5
E 37.03734235615314 13.260383350924036 33.169740111071576 0.5
E 41.28305034047349 12.17290350790269 30.763217453189796 0.5
P 38.057569597851455 13.240008293685447 29.784666813144632 0.5
P 40.26282309877517 12.193278565141279 34.14829075111674 0.5
A 11.726001866157716 39.586584981471 9.962486727783647 2.5
E 14.219910235739878 39.59129648387028 9.788134079763717 0.5
E 9.232093496575555 39.58187347907172 10.136839375803577 0.5
E 11.842529309988633 41.40107753349084 11.67830668730653 0.5
E 11.6094744223268 37.772092429451156 8.246666768260763 0.5
P 11.596223597712447 41.306350831930885 8.152635070705173 0.5
P 11.855780134602986 37.86681913101111 11.77233838486212 0.5
A 26.192898709866686 7.758875978084473 22.311195912306005 2.5
E 25.225784309636108 5.76199348725588 21.159175923464204 0.5
E 27.160013110097264 9.755758468913067 23.463215901147805 0.5
E 28.25728307185615 7.564815379814345 20.9145364369239 0.5
E 24.12851434787722 7.952936576354601 23.70785538768811 0.5
P 25.166737444352233 9.250452594294131 20.587191197945703 0.5
P 27.21905997538114 6.267299361874814 24.035200626666306 0.5
A 15.556325017680045 9.628567976810116 3.3944360942277827 2.5
E 15.83314059264203 11.556604001503405 1.8272570282160934 0.5
E 15.27950944271806 7.700531952116825 4.961615160239472 0.5
E 18.03327395399284 9.538301345661289 3.7208957428857286 0.5
E 13.07937608136725 9.718834607958943 3.067976445569837 0.5
P 15.361140222269917 11.217444631175661 5.314689690202744 0.5
P 15.751509813090173 8.03969132244457 1.4741824982528209 0.5
A 12.76446581093324 39.207855553966496 33.72444622384611 2.5
E 11.210093504867599 38.16365272933262 32.06807452789138 0.5
E 14.318838116998881 40.252058378600374 35.38081791980083 0.5
E 13.486765553962483 40.867752851100576 32.00020028889831 0.5
E 12.042166067903997 37.547958256832416 35.448692158793904 0.5
P 10.944518060212575 40.758462346158105 34.45479460691626 0.5
P 14.584413561653905 37.65724876177489 32.99409784077596 0.5
A 27.140692758250268 35.661117538880546 23.554753743162166 2.5
E 26.94776602060597 38.14063321220447 23.809275450770464 0.5
E 27.333619495894563 33.18160186555662 23.30023203555387 0.5
E 24.741863484517268 35.54575765025873 22.86026816982052 0.5
E 29.539522031983267 35.776477427502364 24.24923931650381 0.5
P 27.81774326551279 35.95893312248738 21.16667742763593 0.5
P 26.463642250987746 35.36330195527371 25.942830058688404 0.5
A 33.834263606751136 19.146464164377697 28.319304975847597 2.5
E 31.33636759415096 19.13867865297212 28.21705578978986 0.5
E 36.332159619351316 19.154249675783273 28.421554161905334 0.5
E 33.87939708510938 21.301346857945923 27.052638663793545 0.5
E 33.78913012839289 16.99158147080947 29.58597128790165 0.5
P 33.74218494815642 20.41391040101793 30.47223357611726 0.5
P 33.92634226534585 17.879017927737465 26.166376375577933 0.5
A 5.134257241581368 11.817281256719284 25.482491615751922 2.5
E 3.805049759006713 12.697057354164434 23.556562882222746 0.5
E 6.463464724156023 10.937505159274133 27.408420349281098 0.5
E 4.201951623014843 13.615771042792062 26.947496981947808 0.5
E 6.066562860147894 10.018791470646505 24.017486249556036 0.5
P 3.233201297675877 10.320141147124447 26.110629968653196 0.5
P 7.035313185486859 13.31442136631412 24.854353262850648 0.5
70
Properties=species:S:1:pos:R:3:radius:R:1
A 14.69496176944322 17.93121239983323 39.464074343692445 2.5
E 13.787282985005628 18.41430096533191 41.742833800538826 0.5
E 15.60264055388081 17.448123834334545 37.185314886846065 0.5
E 12.444090820075754 17.119639091554866 38.73955468586099 0.5
E 16.945832718810685 18.74278570811159 40.1885940015239 0.5
P 14.095212493848832 20.245942233566534 38.7344671868954 0.5
P 15.294711045037607 15.61648256609992 40.19368150048949 0.5
A 16.180359834622898 26.103457504248286 12.151038874532562 2.5
E 17.64601447139646 24.114579509169808 12.533427167237264 0.5
E 14.714705197849339 28.092335499326765 11.76865058182786 0.5
E 15.100823872574065 24.93690838549597 10.221332870970794 0.5
E 17.25989579667173 27.270006623000604 14.080744878094329 0.5
P 14.466750021290732 25.137265248932792 13.693768252427757 0.5
P 17.893969647955064 27.06964975956378 10.608309496637366 0.5
A 39.04788680725841 12.587220821449796 31.700912037988104 2.5
E 36.81254339386355 11.712986227183858 32.4001642803014 0.5
E 41.283230220653266 13.461455415715733 31.00165979567481 0.5
E 40.076180254204544 10.36646073778107 32.21163430865051 0.5
E 38.01959336031227 14.807980905118521 31.1901897673257 0.5
P 38.60533465083035 11.842950356516782 29.355659585933417 0.5
P 39.490438963686465 13.331491286382809 34.04616449004279 0.5
A 11.917183450525448 39.48590101158768 9.670120112292281 2.5
E 13.767261542758721 39.94710247771306 11.287062987065765 0.5
E 10.067105358292174 39.0246995454623 8.053177237518797 0.5
E 13.52313655441616 39.71343767418176 7.7677159240931015 0.5
E 10.311230346634735 39.258364348993595 11.57252430049146 0.5
P 12.415305604962215 37.039368715700746 9.798003044851425 0.5
P 11.41906129608868 41.93243330747461 9.542237179733137 0.5
A 26.18599977607243 7.5332436127404145 21.673112326250994 2.5
E 25.312835282757852 5.493797471025559 22.825606665786534 0.5
E 27.059164269387004 9.57268975445527 20.520617986715454 0.5
E 28.465689611337517 7.076500560877826 22.59202474839287 0.5
E 23.90630994080734 7.989986664603003 20.754199904109118 0.5
P 26.725071220879236 6.161367080532795 19.65386574453437 0.5
P 25.64692833126562 8.905120144948034 23.692358907967616 0.5
A 15.531813830322465 9.353956912137049 3.649534318941614 2.5
E 15.455350744784626 10.252544465241503 5.981206209658136 0.5
E 15.608276915860303 8.455369359032595 1.3178624282250917 0.5
E 16.512178556056483 7.2190111267051496 4.5044562439177 0.5
E 14.551449104588448 11.488902697568948 2.794612393965529 0.5
P 13.23332771962084 8.413453375368526 3.9366139180764224 0.5
P 17.830299941024087 10.294460448905571 3.3624547198068058 0.5
A 12.471973864032375 38.511896522692304 34.40436429066134 2.5
E 13.488466532182064 40.787599270975186 34.599093993204875 0.5
E 11.455481195882685 36.23619377440942 34.20963458811781 0.5
E 13.93198903299312 38.02839970292315 32.43342884481978 0.5
E 11.011958695071629 38.995393342461455 36.3752997365029 0.5
P 14.228418671590951 37.59679662283006 35.929976892624786 0.5
P 10.715529056473798 39.426996422554545 32.878751688697896 0.5
A 26.505507032461868 36.465567952120836 23.49916598298995 2.5
E 25.148845760270692 38.530552529706995 23.880360010840274 0.5
E 27.862168304653043 34.400583374534676 23.117971955139627 0.5
E 25.933054052156734 35.66522901978649 25.797372931619794 0.5
E 27.077960012767 37.265906884455184 21.200959034360107 0.5
P 24.485168501948426 35.30569886997318 22.59200781905074 0.5
P 28.52584556297531 37.625437034268494 24.406324146929162 0.5
A 34.39268929211697 19.570028101386026 27.866955976731013 2.5
E 35.39803185373949 21.67635588086986 26.971037666188078 0.5
E 33.38734673049445 17.46370032190219 28.76287428727395 0.5
E 35.72784563849409 18.235582700443903 26.22786689964141 0.5
E 33.05753294573985 20.90447350232815 29.506045053820618 0.5
P 36.25189446221528 19.389366104053288 29.528496640753588 0.5
P 32.533484122018656 19.750690098718763 26.20541531270844 0.5
A 5.479639009114095 10.703510317909503 25.512733531580576 2.5
E 5.432903070621107 11.372679084447661 23.10440861289861 0.5
E 5.526374947607083 10.034341551371345 27.921058450262542 0.5
E 6.246716423493751 12.999866024639232 26.13590502364351 0.5
E 4.712561594734439 8.407154611179774 24.889562039517642 0.5
P 3.1006879813702883 11.430809176743423 25.76098416609553 0.5
P 7.858590036857901 9.976211459075582 25.264482897065623 0.5
70
Properties=species:S:1:pos:R:3:radius:R:1
A 14.611476801240189 17.611012696102147 39.414689302283925 2.5
E 13.622603622009262 19.516655715959757 40.6955696699476 0.5
E 15.600349980471115 15.705369676244535 38.13380893462025 0.5
E 15.05416176766335 19.137697179063462 37.48511305087829 0.5
E 14.168791834817027 16.084328213140832 41.34426555368956 0.5
P 16.86451027988652 18.147444584000002 40.35600804412736 0.5
P 12.358443322593855 17.074580808204292 38.47337056044049 0.5
A 15.874876491261379 26.479982475426564 11.178914741411745 2.5
E 18.297924176341695 26.228574367991307 11.740727770224266 0.5
E 13.451828806181064 26.73139058286182 10.617101712599224 0.5
E 16.440011958196493 28.29277487089059 9.552751885188368 0.5
E 15.309741024326264 24.667190079962538 12.805077597635123 0.5
P 16.11872443535709 24.77687423034513 9.365089919193052 0.5
P 15.631028547165664 28.183090720507998 12.992739563630439 0.5
A 38.48837732020565 12.699349380489373 31.023517239309864 2.5
E 38.79277445302554 10.96063473866666 29.253146153960245 0.5
E 38.183980187385764 14.438064022312087 32.793888324659484 0.5
E 40.9645649022823 12.796651339849678 31.353710193616447 0.5
E 36.012189738129 12.602047421129068 30.693324285003282 0.5
P 38.64911761975774 14.493061654800837 29.289516422388502 0.5
P 38.32763702065356 10.90563710617791 32.75751805623123 0.5
A 12.669059141076069 39.45168826005505 9.464843344506441 2.5
E 14.12054194400356 41.41839248529927 9.989507201857611 0.5
E 11.217576338148577 37.48498403481083 8.940179487155271 0.5
E 13.583124864171738 38.24613491210595 11.455100860283896 0.5
E 11.7549934179804 40.65724160800415 7.474585828728987 0.5
P 10.850355886923357 40.4153871838137 10.883858093435808 0.5
P 14.487762395228781 38.4879893362964 8.045828595577074 0.5
A 26.54234473867896 7.3413193769356075 21.04936391565191 2.5
E 24.13948220011438 8.031206460656254 21.03183016304328 0.5
E 28.94520727724354 6.651432293214961 21.066897668260538 0.5
E 26.424225996099747 6.9927604598978075 23.522126468750585 0.5
E 26.660463481258173 7.689878293973408 18.576601362553234 0.5
P 25.86241857841108 4.963807548769237 20.681752812018576 0.5
P 27.22227089894684 9.718831205101978 21.416975019285243 0.5
A 15.895095921181863 9.320518204527815 3.377247664637004 2.5
E 14.888906139623032 7.163304782616895 2.613040640450519 0.5
E 16.901285702740694 11.477731626438736 4.141454688823489 0.5
E 17.8835421764341 8.90974487550047 1.9187049802649867 0.5
E 13.906649665929622 9.73129153355516 4.835790349009022 0.5
P 14.76210712447559 10.515380340713058 1.4961201139241616 0.5
P 17.028084717888138 8.125656068342572 5.258375215349847 0.5
A 12.22362522716182 37.85631065364444 34.90906604008581 2.5
E 13.530398709067486 35.91165891039101 34.036900537187215 0.5
E 10.916851745256155 39.80096239689787 35.78123154298441 0.5
E 11.80997347822629 38.628493655450406 32.56756531569529 0.5
E 12.63727697609735 37.08412765183848 37.25056676447633 0.5
P 10.132875290515269 36.48807711759142 34.827202169977376 0.5
P 14.314375163808371 39.22454418969746 34.99092991019425 0.5
A 26.132780981729095 37.03535323392951 23.417160455313887 2.5
E 25.403142838257686 35.449966764968785 25.207182221558234 0.5
E 26.862419125200503 38.62073970289024 21.62713868906954 0.5
E 28.35065215512368 37.28611363118852 24.543289524911387 0.5
E 23.91490980833451 36.784592836670505 22.291031385716387 0.5
P 27.02646752510861 35.118671474428616 22.083873016319718 0.5
P 25.23909443834958 38.95203499343041 24.750447894308056 0.5
A 34.698012778881605 20.044372139937263 27.979245043571716 2.5
E 35.40376277771158 17.646175287145304 27.955395632437888 0.5
E 33.99226278005163 22.44256899272922 28.003094454705543 0.5
E 32.39205881356675 19.372667582132475 27.285422806342222 0.5
E 37.00396674419646 20.71607669774205 28.67306728080121 0.5
P 34.03885175985715 19.82650786502232 30.380919856845907 0.5
P 35.35717379790606 20.262236414852204 25.577570230297525 0.5
A 5.5331061690974 9.82838972894254 25.835352468951296 2.5
E 7.4541112940397385 11.186494659143197 24.989604097086808 0.5
E 3.612101044155062 8.470284798741883 26.681100840815784 0.5
E 3.935682202695819 11.530278952997724 24.93991417369463 0.5
E 7.130530135498981 8.126500504887355 26.730790764207963 0.5
P 5.443797818353476 8.599925619735032 23.659829554597625 0.5
P 5.622414519841325 11.056853838150047 28.010875383304967 0.5
70
Properties=species:S:1:pos:R:3:radius:R:1
A 14.415261156472537 17.16597424067587 39.363609019625585 2.5
E 16.354415777525006 18.743204034380202 39.31860309220588 0.5
E 12.476106535420069 15.588744446971535 39.40861494704529 0.5
E 15.640251298867133 15.706057577875638 40.981645635007006 0.5
E 13.190271014077942 18.625890903476098 37.745572404244164 0.5
P 13.42073689498487 18.443076239550777 41.26884705666526 0.5
P 15.409785417960205 15.888872241800959 37.45837098258591 0.5
A 15.726691844430706 26.65995847093292 10.307023257978626 2.5
E 14.548007162475722 26.478347421610216 12.504230541620583 0.5
E 16.905376526385687 26.841569520255625 8.10981597433667 0.5
E 13.93529745812183 28.19118118256273 9.472599408792382 0.5
E 17.51808623073958 25.12873575930311 11.14144710716487 0.5
P 17.011841086046793 28.627793432039578 11.159089565621771 0.5
P 14.441542602814616 24.692123509826263 9.45495695033548 0.5
A 37.993922861726496 12.736556624413508 30.3601638449579 2.5
E 39.32596238632684 13.536066881877806 32.31885066349515 0.5
E 36.66188333712615 11.93704636694921 28.40147702642065 0.5
E 35.940545568386476 12.66802219511556 31.78457415213632 0.5
E 40.047300155066516 12.805091053711456 28.93575353777948 0.5
P 37.48469560784293 15.104274170956991 29.740001589018352 0.5
P 38.50315011561006 10.368839077870025 30.980326100897447 0.5
A 13.374794951770138 39.67692859003243 9.291118558767753 2.5
E 14.942706263964741 41.43455227662615 10.129219443754275 0.5
E 11.806883639575535 37.919304903438714 8.45301767378123 0.5
E 11.552007155018911 41.38021944077016 9.129115701366322 0.5
E 15.197582748521365 37.9736377392947 9.453121416169184 0.5
P 14.059702803313176 40.186398171181416 6.9413649587541535 0.5
P 12.6898871002271 39.16745900888345 11.640872158781352 0.5
A 26.941919675872565 7.273963838904218 20.37672687260305 2.5
E 28.441588908790816 7.853393612033417 18.462241738199562 0.5
E 25.442250442954315 6.694534065775019 22.29121200700654 0.5
E 25.655892148691073 9.385973440822283 20.008557562720387 0.5
E 28.227947203054057 5.161954236986153 20.744896182485714 0.5
P 25.409886585116375 6.0682787310010555 18.811735489428468 0.5
P 28.473952766628756 8.47964894680738 21.941718255777634 0.5
A 16.288254203816372 9.570314090246473 3.2486700185080104 2.5
E 17.152212991623884 11.155817721137904 1.5195796653447842 0.5
E 15.424295416008862 7.984810459355043 4.977760371671237 0.5
E 18.63036328857897 8.881705123820396 3.787504618763026 0.5
E 13.946145119053774 10.25892305667255 2.709835418252995 0.5
P 16.42279136613426 11.376413735279815 4.972010908804457 0.5
P 16.153717041498485 7.764214445213131 1.5253291282115642 0.5
A 11.947900397834086 37.8086479775683 35.00314459811106 2.5
E 9.864209920181514 37.766145971054705 33.62241016572405 0.5
E 14.031590875486659 37.85114998408189 36.383879030498065 0.5
E 13.323998224827783 37.52629526145123 32.93514273296652 0.5
E 10.57180257084039 38.091000693685366 37.071146463255594 0.5
P 12.068684353225455 40.292288556061976 34.74441556422351 0.5
P 11.827116442442717 35.32500739907462 35.261873631998604 0.5
A 25.79008214844117 37.14071308733443 23.410409772012102 2.5
E 26.585055361771712 34.78028773626217 23.19498054441508 0.5
E 24.995108935110625 39.5011384384067 23.625838999609122 0.5
E 26.17502409374093 37.04508082582902 25.87874406244137 0.5
E 25.405140203141407 37.23634534883985 20.942075481582833 0.5
P 28.128850475752902 37.95878804268724 23.07736911595228 0.5
P 23.451313821129435 36.32263813198163 23.743450428071924 0.5
A 34.48527952599629 20.37926627263792 28.09233496832898 2.5
E 33.45268271399302 19.790148154627886 30.291581127101132 0.5
E 35.51787633799956 20.968384390647955 25.89308880955683 0.5
E 32.42129436335004 21.640862837868376 27.46119365691297 0.5
E 36.54926468864254 19.117669707407465 28.72347627974499 0.5
P 35.44637737336558 22.45563665135943 29.09979562669291 0.5
P 33.524181678627 18.30289589391641 27.084874309965052 0.5
A 5.772163722557484 9.520964059541098 26.08510188326535 2.5
E 4.804236231731256 11.738862221071015 26.71283121792055 0.5
E 6.740091213383712 7.303065898011182 25.45737254861015 0.5
E 3.662309657174607 8.394304943022497 26.812532332143093 0.5
E 7.882017787940361 10.6476231760597 25.357671434387605 0.5
P 4.843922269436696 9.769091003360879 23.777115569514667 0.5
P 6.700405175678272 9.272837115721318 28.39308819701603 0.5
70
Properties=species:S:1:pos:R:3:radius:R:1
A 14.163862424507975 16.93340341082087 39.40744939727536 2.5
E 14.689057362937092 18.95527023202278 40.78084840483722 0.5
E 13.638667486078859 14.911536589618958 38.03405038971349 0.5
E 11.753279550907598 17.12965054351625 40.040361138684844 0.5
E 16.57444529810835 16.73715627812549 38.77453765586587 0.5
P 13.759807371138287 18.3906410785444 37.41667118421025 0.5
P 14.567917477877664 15.476165743097338 41.39822761034046 0.5
A 15.284012734144683 26.99240557504054 10.0227613030967 2.5
E 13.43857275965508 26.185015772772932 8.542061128263626 0.5
E 17.129452708634286 27.799795377308147 11.503461477929775 0.5
E 16.24608994543292 28.29117366955461 8.115509647915152 0.5
E 14.321935522856446 25.69363748052647 11.93001295827825 0.5
P 13.89882006159827 28.970112111376803 10.670772195024577 0.5
P 16.669205406691095 25.014699038704276 9.374750411168824 0.5
A 37.27413667546006 12.27461583099353 29.612692393622048 2.5
E 35.56084694478134 10.662186425695696 30.45809745137927 0.5
E 38.98742640613879 13.887045236291366 28.767287335864825 0.5
E 35.47002743576224 13.934199195517532 29.121802479861394 0.5
E 39.078245915157886 10.615032466469529 30.103582307382702 0.5
P 37.518734610830684 13.221111720644332 31.913630763263086 0.5
P 37.02953874008944 11.32811994134273 27.31175402398101 0.5
A 13.620548886143037 40.251980419442845 8.72435750489923 2.5
E 15.190008427301896 41.322279506949045 10.349551835416971 0.5
E 12.05108934498418 39.181681331936645 7.099163174381489 0.5
E 15.133837276358477 40.893347622006516 6.840583006846714 0.5
E 12.107260495927598 39.61061321687917 10.608132002951745 0.5
P 14.843968273231038 38.08562219081185 8.969586027991824 0.5
P 12.397129499055037 42.41833864807384 8.479128981806635 0.5
A 27.50356029611272 7.013582422917733 19.36803094347582 2.5
E 29.589256452382195 5.63535523356822 19.349021517848723 0.5
E 25.417864139843246 8.391809612267245 19.387040369102916 0.5
E 26.12557310589695 4.927846094627569 19.39727598500587 0.5
E 28.88154748632849 9.099318751207898 19.33878590194577 0.5
P 27.53554228051301 7.0275030331984 21.86778760549023 0.5
P 27.47157831171243 6.999661812637067 16.86827428146141 0.5
A 16.983635588343617 9.973666621790308 3.0261546689742262 2.5
E 16.772171714855023 12.24563084766701 4.047654344229803 0.5
E 17.19509946183221 7.701702395913605 2.0046549937186486 0.5
E 18.114741505858177 10.974636541134092 1.034005421569799 0.5
E 15.852529670829059 8.972696702446523 5.018303916378653 0.5
P 19.20306849644747 9.680003929391443 4.138755131638296 0.5
P 14.764202680239764 10.267329314189173 1.9135542063101567 0.5
A 11.861348926631898 38.046917442788555 35.00738740900475 2.5
E 12.58489909095948 40.11099000041059 33.7965696536965 0.5
E 11.137798762304316 35.98284488516652 36.218205164313 0.5
E 9.471937528422593 38.600771585643535 34.523694574091536 0.5
E 14.250760324841202 37.493063299933574 35.49108024391796 0.5
P 11.992453197369105 36.749670332438896 32.87432350820842 0.5
P 11.73024465589469 39.344164553138214 37.14045130980108 0.5
A 25.119598390222862 37.24023141970884 23.51554142105769 2.5
E 24.457841721553226 35.20302191169173 22.226411663462844 0.5
E 25.781355058892498 39.277440927725955 24.804671178652537 0.5
E 23.251440764406922 36.82858659590492 25.12505551672191 0.5
E 26.9877560160388 37.65187624351276 21.90602732539347 0.5
P 26.643430794582883 35.85086971033265 24.92890932926215 0.5
P 23.59576598586284 38.62959312908503 22.10217351285323 0.5
A 34.19636401125949 20.29494782980245 28.11483967969143 2.5
E 34.10771084941628 22.740764615861398 27.604819223309214 0.5
E 34.2850171731027 17.8491310437435 28.624860136073643 0.5
E 36.08098724520725 20.025372325238784 26.494492706538953 0.5
E 32.31174077731173 20.564523334366115 29.735186652843904 0.5
P 35.836588350476646 20.73688594353826 29.949057447751734 0.5
P 32.556139672042335 19.853009716066637 26.280621911631123 0.5
A 5.897460328226925 9.010225869238992 25.77728658221324 2.5
E 4.825510210155281 9.331772988553718 28.01280227091426 0.5
E 6.9694104462985695 8.688678749924266 23.54177089351222 0.5
E 7.072339905367993 6.976251306933411 26.6332103282984 0.5
E 4.722580751085857 11.044200431544574 24.92136283612808 0.5
P 3.968579584483336 7.592638154155361 25.056270530754635 0.5
P 7.826341071970514 10.427813584322623 26.498302633671845 0.5
70
Properties=species:S:1:pos:R:3:radius:R:1
A 13.623488856043778 16.670327584967232 39.5489513293431 2.5
E 14.077524642265491 18.6792361434119 38.13186350262293 0.5
E 13.169453069822065 14.661419026522566 40.96603915606327 0.5
E 11.76576985124397 16.006840496499535 38.01315675237554 0.5
E 15.481207860843586 17.33381467343493 41.08474590631066 0.5
P 15.233684994418338 15.338384910808495 38.17665503891627 0.5
P 12.013292717669218 18.00227025912597 40.92124761976992 0.5
A 15.020097282112916 27.246480358167872 9.52988257231028 2.5
E 15.47276789063195 24.853594430279628 8.964916859812826 0.5
E 14.567426673593882 29.639366286056116 10.094848284807734 0.5
E 17.410850352625072 27.540771938747575 10.198980637945606 0.5
E 12.62934421160076 26.95218877758817 8.860784506674953 0.5
P 15.594021559365622 27.907910174334827 7.188275960971465 0.5
P 14.44617300486021 26.585050542000918 11.871489183649095 0.5
A 36.68997165932975 11.570642663883048 29.199520074590886 2.5
E 34.82488685959807 12.571168491393447 27.868953744679306 0.5
E 38.55505645906143 10.570116836372648 30.530086404502466 0.5
E 35.025219022344395 10.440650067784679 30.68333791732398 0.5
E 38.354724296315105 12.700635259981416 27.715702231857794 0.5
P 36.69754446990681 9.577638699700481 27.690256064785952 0.5
P 36.68239884875269 13.563646628065614 30.70878408439582 0.5
A 13.666581714680097 0.2649723424918628 8.607786168009778 2.5
E 15.707327991089855 -0.023501913282214126 10.022755156741894 0.5
E 11.62583543827034 0.5534465982659398 7.192817179277661 0.5
E 14.728915655333388 -1.0944002420592636 6.798489958179797 0.5
E 12.604247774026806 1.6243449270429893 10.417082377839758 0.5
P 12.68841954312875 -1.8132212914423465 9.594857586915001 0.5
P 14.644743886231444 2.343165976426072 7.620714749104555 0.5
A 27.823962789370782 6.524900892844095 18.834255541823428 2.5
E 30.05224888646368 6.52480450044606 17.700791356146077 0.5
E 25.595676692277884 6.52499728524213 19.96771972750078 0.5
E 28.93947013517015 6.968327635371652 21.027202437095006 0.5
E 26.708455443571413 6.081474150316539 16.64130864655185 0.5
P 27.623004010084195 8.985261174331772 18.438979873070924 0.5
P 28.02492156865737 4.064540611356418 19.22953121057593 0.5
A 17.49774769204126 10.330814030557871 3.151690315590208 2.5
E 16.00773422002611 11.16633996194252 4.977000226591293 0.5
E 18.98776116405641 9.495288099173223 1.3263804045891234 0.5
E 17.70466159196606 12.655797208943564 2.25634688525575 0.5
E 17.290833792116455 8.005830852172178 4.047033745924666 0.5
P 19.494506688824014 10.71337074296661 4.606545590371775 0.5
P 15.500988695258503 9.948257318149132 1.696835040808641 0.5
A 11.743649465967025 38.12433110540482 35.00725005230491 2.5
E 12.742986786532642 36.335764809052456 33.57464559772798 0.5
E 10.744312145401407 39.912897401757185 36.439854506881844 0.5
E 13.776886683309726 39.53728210380968 34.66153934359637 0.5
E 9.710412248624323 36.71138010699996 35.352960761013456 0.5
P 10.686638899447562 39.151268337983154 32.98781236259841 0.5
P 12.800660032486487 37.09739387282649 37.02668774201141 0.5
A 24.076388124781396 37.50614614619533 23.216819491166017 2.5
E 24.025977605066704 35.00703493064662 23.173208577148635 0.5
E 24.126798644496088 40.005257361744036 23.2604304051834 0.5
E 23.12048790385248 37.48511824191594 25.526757281425823 0.5
E 25.03228834571031 37.52717405047471 20.90688170090621 0.5
P 26.3858715187747 37.44289300745144 24.171955865360246 0.5
P 21.76690473078809 37.569399284939216 22.26168311697179 0.5
A 33.83582395808075 20.38789248126256 28.404391482751496 2.5
E 36.05212422933045 21.42481207845715 27.891740669221583 0.5
E 31.619523686831048 19.35097288406797 28.91704229628141 0.5
E 34.91690915664495 18.925141628180054 30.11950510442569 0.5
E 32.754738759516556 21.85064333434507 26.6892778610773 0.5
P 33.42440215371876 22.130062877854346 30.149548899185703 0.5
P 34.247245762442745 18.645722084670776 26.65923406631729 0.5
A 5.818114259275058 9.274335412302054 25.80723963700327 2.5
E 6.883596593968054 10.144096191232045 27.89488510065228 0.5
E 4.752631924582062 8.404574633372064 23.71959417335426 0.5
E 6.9466455166095615 7.069982246342164 26.149649217686484 0.5
E 4.689583001940554 11.478688578261945 25.464830056320057 0.5
P 3.8582253349535267 8.477878692097029 27.13934027027543 0.5
P 7.778003183596589 10.07079213250708 24.475139003731112 0.5
70
Properties=species:S:1:pos:R:3:radius:R:1
A 12.89200842931471 16.12358321483807 39.83869574953912 2.5
E 15.25621092650383 15.62616112979177 39.19595332710722 0.5
E 10.527805932125592 16.621005299884374 40.48143817197102 0.5
E 12.273645411100206 13.73966368558627 39.40909726751523 0.5
E 13.510371447529215 18.50750274408987 40.26829423156301 0.5
P 13.419430205495866 15.558340835534493 42.21615811993531 0.5
P 12.364586653133555 16.68882559414165 37.46123337914293 0.5
A 14.943307477859873 27.49868185402165 9.47861595237495 2.5
E 12.717763652155368 28.01005336817621 10.496188482654905 0.5
E 17.16885130356438 26.987310339867093 8.461043422094995 0.5
E 16.069173868469434 28.150427118479826 11.613481985818893 0.5
E 13.817441087250314 26.846936589563477 7.343749918931008 0.5
P 14.77190283858521 25.139926401506884 10.289105412434427 0.5
P 15.114712117134538 29.85743730653642 8.668126492315473 0.5
A 36.402122471199824 11.021688099471648 29.15497550746325 2.5
E 34.38886779462933 11.423559392088015 30.58161669270844 0.5
E 38.41537714777032 10.619816806855281 27.728334322218057 0.5
E 34.95754940232137 11.028163577923822 27.11459154436958 0.5
E 37.84669554007828 11.015212621019474 31.195359470556916 0.5
P 36.7338064411743 13.489168095813987 28.927977243786405 0.5
P 36.07043850122535 8.554208103129309 29.381973771140093 0.5
A 13.710971607617955 0.5222422607854329 8.707853431133092 2.5
E 15.46535651287468 -1.2585930968353507 8.68030287300036 0.5
E 11.95658670236123 2.3030776184062165 8.735403989265825 0.5
E 12.61703609986444 -0.5246697093182311 6.718561991517433 0.5
E 14.804907115371469 1.569154230889097 10.697144870748751 0.5
P 12.305468598342689 -0.8858063022619282 10.221775666591984 0.5
P 15.116474616893221 1.930290823832794 7.1939311956742 0.5
A 28.0012800715261 5.974556521986423 18.754771413627598 2.5
E 29.1467228383873 5.719972425279088 16.547250676340823 0.5
E 26.8558373046649 6.229140618693758 20.962292150914372 0.5
E 28.547008855141645 8.414264870867676 18.75657893532545 0.5
E 27.455551287910556 3.534848173105169 18.752963891929745 0.5
P 25.847181428803133 6.4572677297544825 17.581379353267444 0.5
P 30.155378714249068 5.491845314218363 19.928163473987752 0.5
A 17.816532937136998 10.847104936652398 3.5330409530739395 2.5
E 15.47936034020415 11.39321584177771 4.232603052855676 0.5
E 20.153705534069847 10.300994031527086 2.8334788532922026 0.5
E 18.56021705777259 10.976848724249438 5.91633709042156 0.5
E 17.072848816501406 10.717361149055359 1.1497448157263186 0.5
P 17.33222086743164 8.410933877616348 3.816788006370582 0.5
P 18.300845006842355 13.283275995688449 3.249293899777297 0.5
A 12.10374784488005 38.485046042057135 34.98303356890632 2.5
E 11.35095024668284 37.02170117464035 33.10103527582788 0.5
E 12.85654544307726 39.94839090947392 36.86503186198476 0.5
E 13.015469451369373 36.48475725576735 36.17366721688565 0.5
E 11.192026238390728 40.48533482834692 33.792399920927 0.5
P 14.30648693256287 38.81286698471483 33.84704327795046 0.5
P 9.901008757197232 38.15722509939944 36.11902385986218 0.5
A 23.380072858224732 37.252329448328354 23.188017273965354 2.5
E 23.346775206418375 35.4836729217453 24.954580422386652 0.5
E 23.41337051003109 39.020985974911405 21.421454125544056 0.5
E 21.91271265508761 38.69647669565176 24.60621781066615 0.5
E 24.847433061361855 35.808182201004946 21.76981673726456 0.5
P 25.403867635526616 38.270314133392034 24.24535443889536 0.5
P 21.35627808092285 36.23434476326467 22.130680109035346 0.5
A 33.30660818214716 20.508011611207557 28.789630446451223 2.5
E 34.22066430059179 22.487752130969245 30.01238507708978 0.5
E 32.392552063702524 18.52827109144587 27.566875815812665 0.5
E 31.085678308696174 21.642225034204312 28.61347594521049 0.5
E 35.52753805559814 19.373798188210802 28.965784947691958 0.5
P 34.00085014972569 21.529866486181543 26.61619061407836 0.5
P 32.612366214568624 19.48615673623357 30.963070278824087 0.5
A 5.674787742608587 10.10868084998627 26.035732656358288 2.5
E 6.498829899321281 12.309151395322639 25.181985677992145 0.5
E 4.850745585895893 7.9082103046499 26.88947963472443 0.5
E 7.9785869756011785 9.162168469592554 25.81980811438555 0.5
E 3.3709885096159957 11.055193230379984 26.251657198331028 0.5
P 6.1880748143579245 10.824253133456256 28.375496039503368 0.5
P 5.16150067085925 9.393108566516283 23.69596927321321 0.5
70
Properties=species:S:1:pos:R:3:radius:R:1
A 12.765768663652958 15.891187085044496 39.875478278521875 2.5
E 14.521138698912646 15.929118819133361 38.095804931285805 0.5
E 11.01039862839327 15.853255350955632 41.655151625757945 0.5
E 14.469626490479632 16.578937816878685 41.570726766745366 0.5
E 11.061910836826284 15.203436353210307 38.180229790298384 0.5
P 12.2504585189101 18.294426589216222 39.41842758077102 0.5
P 13.281078808395815 13.487947580872769 40.332528976272734 0.5
A 14.930653055629737 28.131901493190778 9.56906142128905 2.5
E 13.59240840404235 29.113954124058285 7.699656734576019 0.5
E 16.26889770721712 27.14984886232327 11.43846610800208 0.5
E 15.418726990542098 30.42901747364317 10.426407329548999 0.5
E 14.442579120717376 25.834785512738385 8.7117155130291 0.5
P 12.876173781809335 28.037929143230155 10.99042840799092 0.5
P 16.98513232945014 28.2258738431514 8.147694434587178 0.5
A 35.94020483326753 10.770322522495114 29.36733202239076 2.5
E 33.493530926798705 10.256720755440067 29.367189606217337 0.5
E 38.38687873973635 11.28392428955016 29.36747443856418 0.5
E 35.69937353268919 11.916971890870089 31.575769368268354 0.5
E 36.18103613384587 9.623673154120139 27.158894676513164 0.5
P 36.39384244201065 8.60897839189419 30.538999410795256 0.5
P 35.48656722452441 12.931666653096038 28.19566463398626 0.5
A 13.688660658928688 0.5539190238164449 8.038276544433481 2.5
E 15.61463557616155 -0.6402432913714133 9.094021297284948 0.5
E 11.762685741695826 1.748081339004303 6.982531791582014 0.5
E 13.103867690745034 -1.5158803982786302 6.763934542984809 0.5
E 14.273453627112342 2.62371844591152 9.312618545882152 0.5
P 12.205880229279314 -0.18086442542450698 9.91216434261371 0.5
P 15.171441088578062 1.2887024730573966 6.164388746253251 0.5
A 28.226875159944182 5.645179172542593 18.883219678015298 2.5
E 30.15932420745018 5.2387661603330455 17.350095696628955 0.5
E 26.294426112438185 6.051592184752141 20.41634365940164 0.5
E 27.199848028509905 7.166048380657536 17.185523555881627 0.5
E 29.25390229137846 4.124309964427651 20.58091580014897 0.5
P 27.018216419814017 3.7030707009796426 17.874577653017145 0.5
P 29.435533900074347 7.587287644105544 19.89186170301345 0.5
A 18.11896873638539 11.704460331990852 3.530927971948674 2.5
E 15.729375774254223 12.184321522061257 2.974529990644726 0.5
E 20.50856169851656 11.224599141920446 4.0873259532526225 0.5
E 17.525033073481804 11.55738687304574 5.954893694892567 0.5
E 18.712904399288977 11.851533790935964 1.1069622490047815 0.5
P 17.68643445604894 9.255357917648029 3.27634702137363 0.5
P 18.551503016721842 14.153562746333675 3.7855089225237184 0.5
A 12.694344346898415 38.65845341387411 34.86269553139399 2.5
E 12.23462187835283 36.77802539554534 33.28072027248661 0.5
E 13.154066815444 40.538881432202885 36.444670790301366 0.5
E 10.624568812208091 38.08719709303735 36.143201467302916 0.5
E 14.764119881588739 39.22970973471088 33.58218959548506 0.5
P 14.018989389129844 37.11324899898761 36.31447334783269 0.5
P 11.369699304666986 40.20365782876062 33.41091771495529 0.5
A 22.732967390876425 37.34744311262431 23.033219097616406 2.5
E 22.433845209621968 39.74379962691617 22.38668883761815 0.5
E 23.032089572130882 34.95108659833245 23.679749357614664 0.5
E 23.535017298427604 36.82449352515153 20.723838298622862 0.5
E 21.930917483325246 37.87039270009709 25.34259989660995 0.5
P 25.08184837263765 37.83117773550538 23.739447777398947 0.5
P 20.3840864091152 36.863708489743246 22.326990417833866 0.5
A 33.42635636950348 20.19560766326261 29.3205031810238 2.5
E 31.902234602722324 21.864710643794425 28.252257853206146 0.5
E 34.95047813628464 18.526504682730796 30.388748508841452 0.5
E 35.20436803030572 20.75230242872763 27.653540232378674 0.5
E 31.648344708701238 19.63891289779759 30.987466129668924 0.5
P 34.30141486701989 21.97161052882455 30.846965249809216 0.5
P 32.55129787198707 18.41960479770067 27.794041112238382 0.5
A 5.657124143913707 11.075337349680519 25.911939444754243 2.5
E 3.372124593246847 10.434379270356914 25.125841617506122 0.5
E 7.942123694580568 11.716295429004123 26.698037272002363 0.5
E 6.424136082652968 11.251210487090534 23.539016916442126 0.5
E 4.890112205174447 10.899464212270503 28.28486197306636 0.5
P 4.9934452009858346 13.485366681470802 25.876038461107715 0.5
P 6.32080308684158 8.665308017890235 25.94784042840077 0.5
70
Properties=species:S:1:pos:R:3:radius:R:1
A 13.14134477966095 16.255741933903206 39.47176083515841 2.5
E 14.499238539773701 14.313627112969376 38.67532216297001 0.5
E 11.783451019548197 18.197856754837034 40.268199507346814 0.5
E 12.952958102905816 17.08771768576968 37.121797684739114 0.5
E 13.329731456416082 15.423766182036733 41.82172398557771 0.5
P 11.050738409186293 14.919326440646492 39.16621438514565 0.5
P 15.231951150135606 17.59215742715992 39.777307285171176 0.5
A 14.362721729560116 28.207096972488188 9.725890436657329 2.5
E 12.755854306984581 26.600036404527135 8.684097070787306 0.5
E 15.96958915213565 29.81415754044924 10.767683802527351 0.5
E 12.44996841978812 29.485049305766733 10.704773785082887 0.5
E 16.27547503933211 26.929144639209643 8.74700708823177 0.5
P 14.459426756432386 26.78084518378703 11.776854593585727 0.5
P 14.266016702687846 29.633348761189346 7.674926279728931 0.5
A 35.280653246184876 10.694950178540308 29.059087834864748 2.5
E 35.03977932845969 8.206610827062509 29.046962339131692 0.5
E 35.521527163910065 13.183289530018108 29.071213330597804 0.5
E 37.504327746586526 10.474233736002166 30.180049907486648 0.5
E 33.056978745783226 10.91566662107845 27.938125762242848 0.5
P 36.39745737942544 10.597731230385323 26.82451919548567 0.5
P 34.16384911294431 10.792169126695294 31.293656474243825 0.5
A 13.918439510408799 0.5182268846166107 7.196163636161581 2.5
E 15.118875656416218 2.7071095048940856 7.0629497705007225 0.5
E 12.71800336440138 -1.670655735660864 7.329377501822439 0.5
E 14.449956510602625 0.3751446875150113 9.634814321146164 0.5
E 13.386922510214973 0.6613090817182101 4.757512951176997 0.5
P 11.790895682925555 1.717526830217392 7.730239382304537 0.5
P 16.045983337892043 -0.6810730609841706 6.662087890018624 0.5
A 28.05807697866028 4.947239957048767 19.127250696044833 2.5
E 29.361159270670292 3.018649497032673 18.214827889563708 0.5
E 26.75499468665027 6.875830417064861 20.039673502525957 0.5
E 26.447643050622354 4.759418165296245 17.22429890002654 0.5
E 29.66851090669821 5.135061748801289 21.030202492063125 0.5
P 26.65862026133162 3.3676001841638765 20.467496600439212 0.5
P 29.457533695988943 6.526879729933658 17.787004791650453 0.5
A 18.41322016030645 12.190192680088225 3.936736284204099 2.5
E 16.022837963601617 12.86477986415849 4.2213502065033275 0.5
E 20.803602357011286 11.515605496017962 3.6521223619048704 0.5
E 18.427527515087906 11.261598784157638 6.2578370308416575 0.5
E 18.398912805524997 13.118786576018813 1.6156355375665408 0.5
P 17.68118993328194 9.969236690535432 3.052719180753131 0.5
P 19.145250387330965 14.411148669641019 4.820753387655068 0.5
A 12.993351986521319 38.769291480899895 34.32873798202187 2.5
E 11.380038789435355 37.43400993501939 35.69411108902798 0.5
E 14.606665183607282 40.1045730267804 32.96336487501576 0.5
E 11.088026773323934 39.772800335216104 33.05881443658318 0.5
E 14.898677199718703 37.765782626583686 35.598661527460564 0.5
P 12.863135397490248 40.62939716943918 35.99398585168007 0.5
P 13.123568575552389 36.90918579236061 32.66349011236367 0.5
A 22.67773895756656 37.05039768521842 23.219349575619628 2.5
E 23.7440400935433 36.056374780689 25.250339568870807 0.5
E 21.61143782158982 38.044420589747844 21.18835958236845 0.5
E 20.417197845883692 36.52779719346796 24.150393402952464 0.5
E 24.93828006924943 37.57299817696888 22.288305748286792 0.5
P 22.623371965677062 39.28396147237425 24.34106123148303 0.5
P 22.73210594945606 34.81683389806259 22.097637919756224 0.5
A 34.072394573546376 20.02954738508709 29.84380144410259 2.5
E 35.32486373166671 21.764138019599656 31.137059476599983 0.5
E 32.81992541542604 18.29495675057452 28.550543411605194 0.5
E 33.314226952055954 18.98183581830702 31.98330660431119 0.5
E 34.8305621950368 21.077258951867158 27.70429628389399 0.5
P 32.04594376839928 21.493615622396046 29.8426478314506 0.5
P 36.09884537869347 18.56547914777813 29.84495505675458 0.5
A 5.530656902261629 11.363321252774867 25.961627114816118 2.5
E 6.127027393527554 10.303479159951731 28.14590662427221 0.5
E 4.934286410995705 12.423163345598002 23.777347605360024 0.5
E 3.6702144845408657 9.718741330602567 25.671608339673348 0.5
E 7.391099319982393 13.007901174947166 26.251645889958887 0.5
P 3.9708183697542427 12.919628297631462 27.14264876349034 0.5
P 7.090495434769016 9.807014207918272 24.780605466141896 0.5
70
Properties=species:S:1:pos:R:3:radius:R:1
A 12.912947349304659 16.509804650012494 39.09382550759543 2.5
E 15.21959226796148 17.468766364609955 38.99492328733755 0.5
E 10.606302430647839 15.550842935415032 39.19272772785332 0.5
E 13.876184765260158 14.227777933409946 39.432244988737615 0.5
E 11.94970993334916 18.791831366615042 38.75540602645325 0.5
P 12.873413822532868 16.86015660826229 41.568838761219034 0.5
P 12.95248087607645 16.1594526917627 36.61881225397183 0.5
A 13.837513405119061 27.724472443311704 9.835172216033014 2.5
E 12.715729545400857 25.496778983661407 9.664928796460105 0.5
E 14.959297264837266 29.952165902962 10.005415635605923 0.5
E 15.751781852781981 26.66788690911381 11.047279191182819 0.5
E 11.923244957456141 28.781057977509597 8.623065240883209 0.5
P 14.989545211259319 27.310940269526036 7.655306656213744 0.5
P 12.685481598978804 28.138004617097373 12.015037775852283 0.5
A 34.63250931453551 10.509910331122919 28.981302054644793 2.5
E 36.322154657993025 12.152607123559129 28.146648916238107 0.5
E 32.942863971078 8.867213538686709 29.81595519305148 0.5
E 33.42076029185338 12.353659785886649 30.15699429927658 0.5
E 35.844258337217646 8.66616087635919 27.805609810013006 0.5
P 33.24443045533434 10.89995545181825 26.938974489228183 0.5
P 36.020588173736684 10.119865210427587 31.023629620061403 0.5
A 13.778148074223957 0.6197045041969035 6.646939789366423 2.5
E 11.979850135802018 0.539394079329688 4.9120983671253935 0.5
E 15.576446012645896 0.700014929064119 8.381781211607452 0.5
E 13.738089092709108 3.1182837597164 6.572798155409128 0.5
E 13.818207055738805 -1.8788747513225932 6.721081423323717 0.5
P 12.041910820083377 0.645237611009663 8.445502620570574 0.5
P 15.514385328364536 0.5941713973841439 4.848376958162271 0.5
A 27.954320025548608 4.54837092036969 19.38942169107407 2.5
E 28.213524737540986 2.0649293159767907 19.513238955029315 0.5
E 27.69511531355623 7.031812524762589 19.265604427118824 0.5
E 26.265490421323044 4.281170070330238 17.56556361720113 0.5
E 29.64314962977417 4.815571770409142 21.21327976494701 0.5
P 26.129308385811953 4.442912382021154 21.094769459570898 0.5
P 29.779331665285262 4.653829458718226 17.68407392257724 0.5
A 19.02356598967082 12.265143940365327 4.802542862386583 2.5
E 16.801338974558078 13.409865314726536 4.766210117026325 0.5
E 21.245793004783565 11.120422566004118 4.838875607746842 0.5
E 19.518710856125733 13.29690618825332 7.0252210273619315 0.5
E 18.52842112321591 11.233381692477334 2.5798646974112347 0.5
P 17.990832406151736 10.29662174366156 5.9463880033729515 0.5
P 20.056299573189907 14.233666137069093 3.658697721400215 0.5
A 12.587387742093842 38.65085054118346 33.5691846067563 2.5
E 12.716894931996286 40.89213879937315 32.469250594435216 0.5
E 12.457880552191398 36.40956228299377 34.66911861907739 0.5
E 10.154909224590938 39.01222390737236 34.019137439942554 0.5
E 15.019866259596746 38.28947717499456 33.11923177357005 0.5
P 12.025003398742601 37.60393304973225 31.369710211260173 0.5
P 13.149772085445083 39.69776803263467 35.768659002252434 0.5
A 22.796336503000802 36.85560074440887 23.821373397073636 2.5
E 21.630509670186353 38.59556636803535 22.456321227928196 0.5
E 23.96216333581525 35.115635120782386 25.186425566219075 0.5
E 22.30768019969168 35.14795841316044 22.062063110124384 0.5
E 23.284992806309923 38.5632430756573 25.580683684022887 0.5
P 24.953200618592426 37.409204661598125 22.6849492290155 0.5
P 20.639472387409178 36.30199682721961 24.95779756513177 0.5
A 35.173104859112556 19.953628863129378 29.800275255160418 2.5
E 33.40857794544463 21.066632933154352 31.177833497504377 0.5
E 36.937631772780485 18.840624793104404 28.42271701281646 0.5
E 33.62953423402681 18.03375652860063 29.374270625509592 0.5
E 36.7166754841983 21.873501197658126 30.226279884811245 0.5
P 34.30486843030164 21.104850891766503 27.75800853789093 0.5
P 36.04134128792347 18.802406834492253 31.842541972429906 0.5
A 5.769490114619319 11.416224092148125 26.021779550628054 2.5
E 6.515179562309182 13.801989734179807 26.067271845658016 0.5
E 5.023800666929455 9.030458450116443 25.97628725559809 0.5
E 6.83385144830492 11.041012874182025 28.252553293809857 0.5
E 4.705128780933717 11.791435310114226 23.79100580744625 0.5
P 3.6338210861973232 12.062241772413534 27.149422649230402 0.5
P 7.905159143041314 10.770206411882716 24.894136452025705 0.5
70
Properties=species:S:1:pos:R:3:radius:R:1
A 12.559190642856615 16.706263826160498 38.88922736006485 2.5
E 11.117598026121147 17.746793178788547 37.13164111930903 0.5
E 14.000783259592083 15.665734473532448 40.64681360082067 0.5
E 14.155507565609268 15.938184869643884 37.12519022930746 0.5
E 10.962873720103962 17.474342782677112 40.653264490822245 0.5
P 13.83338961064313 18.845738851225462 39.11073042463955 0.5
P 11.284991675070101 14.566788801095534 38.66772429549015 0.5
A 12.946138945938033 27.104975860580613 10.016362191536743 2.5
E 12.067895411767807 24.985715318903047 9.022670563727743 0.5
E 13.824382480108259 29.224236402258178 11.010053819345742 0.5
E 14.650833311367444 27.253149071582992 8.193709778152485 0.5
E 11.241444580508622 26.956802649578233 11.839014604921001 0.5
P 11.342173417891246 28.422845146978453 8.623338455627035 0.5
P 14.55010447398482 25.787106574182772 11.40938592744645 0.5
A 34.18119280161731 10.516298348688338 29.131714054085254 2.5
E 34.40097592576062 12.655505296567497 27.856767383636996 0.5
E 33.961409677473995 8.377091400809178 30.406660724533513 0.5
E 33.19184554454291 9.416737872477473 27.116234269003286 0.5
E 35.17054005869171 11.615858824899203 31.147193839167223 0.5
P 36.466556532680904 9.834564974633473 28.381812578264196 0.5
P 31.89582907055371 11.198031722743202 29.881615529906313 0.5
A 13.505739424838776 0.6521673405793598 6.180055116139587 2.5
E 13.599013855205937 -0.34291726818577684 3.8885258228429227 0.5
E 13.412464994471614 1.6472519493444964 8.471584409436252 0.5
E 11.082587525196507 1.1741867349297443 5.85473892659407 0.5
E 15.928891324481045 0.13014794622897508 6.505371305685104 0.5
P 12.89776347802999 -1.5810595563836616 7.125075155493869 0.5
P 14.113715371647562 2.885394237542381 5.235035076785305 0.5
A 27.88812591574911 4.555377916496864 19.6842016361509 2.5
E 25.429085169160757 4.1149588518047455 19.588547811992953 0.5
E 30.347166662337465 4.995796981188983 19.779855460308845 0.5
E 27.715270056202257 5.967050879956393 17.628161681271656 0.5
E 28.060981775295964 3.1437049530373358 21.74024159103014 0.5
P 27.47190547122405 6.571118597163711 21.103197777747575 0.5
P 28.30434636027417 2.539637235830017 18.265205494554223 0.5
A 19.44164008157878 11.72377484202076 5.667050056865514 2.5
E 20.4710695941065 13.631569414361318 4.421821263235019 0.5
E 18.41221056905106 9.815980269680201 6.912278850496008 0.5
E 21.414678440186464 11.660379437662854 7.201032018353525 0.5
E 17.468601722971094 11.787170246378665 4.133068095377503 0.5
P 18.30260781065699 13.338179033187215 7.198815245575764 0.5
P 20.580672352500567 10.109370650854304 4.135284868155264 0.5
A 12.170435865606423 38.3354012814759 32.87231427248262 2.5
E 10.13617780101145 37.31948019332803 33.911399672862515 0.5
E 14.204693930201397 39.35132236962377 31.833228872102723 0.5
E 11.210276945194911 40.61684855327867 33.22316066840797 0.5
E 13.130594786017936 36.053954009673134 32.52146787655727 0.5
P 13.261256187282 38.4489912838355 35.11891355521629 0.5
P 11.079615543930847 38.22181127911631 30.62571498974895 0.5
A 22.703633803259134 36.53434068443214 24.837410623342222 2.5
E 24.813321846430355 35.77994477589315 23.728310459389096 0.5
E 20.593945760087912 37.28873659297113 25.94651078729535 0.5
E 22.11868201318887 34.156687656255166 25.341987159553845 0.5
E 23.288585593329397 38.91199371260911 24.3328340871306 0.5
P 23.910716138394072 36.70063226804765 27.02036718393262 0.5
P 21.496551468124196 36.36804910081663 22.654454062751824 0.5
A 35.73228515064273 20.094037829314757 29.633588686777653 2.5
E 33.37076849515959 20.17210452533796 28.816799438043343 0.5
E 38.093801806125875 20.015971133291554 30.450377935511963 0.5
E 36.181551653183554 18.1346108438479 28.147383620738914 0.5
E 35.28301864810191 22.053464814781616 31.119793752816392 0.5
P 36.41886995645384 21.644699455717014 27.796730002819345 0.5
P 35.04570034483162 18.5433762029125 31.47044737073596 0.5
A 6.090608831299746 11.660134292764052 25.82924319762864 2.5
E 4.785068289591681 13.131336835567657 24.28615312507713 0.5
E 7.396149373007811 10.188931749960448 27.372333270180146 0.5
E 7.444856924873743 13.629876158593909 26.56145155803605 0.5
E 4.736360737725749 9.690392426934196 25.097034837221226 0.5
P 4.443922463162204 12.113653928554523 27.654823638185743 0.5
P 7.737295199437288 11.206614656973581 24.003662757071535 0.5
70
Properties=species:S:1:pos:R:3:radius:R:1
A 12.231081838101177 16.416842126942942 38.80784827600776 2.5
E 13.358291247214154 18.079994255125154 40.29557269488753 0.5
E 11.1038724289882 14.75368999876073 37.32012385712799 0.5
E 10.055457955529832 17.606469480147695 39.126356489548996 0.5
E 14.406705720672523 15.22721477373819 38.489340062466525 0.5
P 12.727125857915295 17.855143819575968 36.824107221490664 0.5
P 11.73503781828706 14.978540434309917 40.79158933052486 0.5
A 12.143444190900054 26.93212268061078 10.569457979724612 2.5
E 10.168624303694509 25.611160039940966 9.79154788527092 0.5
E 14.118264078105598 28.253085321280597 11.347368074178306 0.5
E 12.076744203576467 28.273568383335846 8.460886297677181 0.5
E 12.21014417822364 25.590676977885717 12.678029661772044 0.5
P 10.611896762712027 28.576987759757376 11.66434671681873 0.5
P 13.67499161908808 25.287257601464187 9.474569242630494 0.5
A 34.015869520290856 10.942403948096752 29.421404323329224 2.5
E 35.54733145001943 12.721509380472462 28.561515831556747 0.5
E 32.484407590562284 9.163298515721042 30.2812928151017 0.5
E 35.991773455242246 9.55223559385599 30.06423835067268 0.5
E 32.039965585339466 12.332572302337514 28.778570295985766 0.5
P 34.03655762400094 12.0158171059061 31.679136857312404 0.5
P 33.99518141658077 9.868990790287404 27.163671789346044 0.5
A 13.509458637823423 0.8177390406207892 5.783159263478125 2.5
E 15.850925989854579 0.46190545226920704 4.982588781402153 0.5
E 11.167991285792267 1.1735726289723714 6.583729745554097 0.5
E 13.396547680547465 -1.570278880016571 6.514337440422811 0.5
E 13.62236959509938 3.2057569612581496 5.051981086533439 0.5
P 14.378240402766464 1.4663937007551051 8.035816666810199 0.5
P 12.640676872880382 0.16908438048647323 3.5305018601460505 0.5
A 27.761804592345108 4.524231415632421 19.848251201139313 2.5
E 29.68571731698056 6.031157913722883 19.32124801581601 0.5
E 25.837891867709654 3.0173049175419595 20.375254386462615 0.5
E 27.942470356054617 3.4987226533479556 17.575435401233094 0.5
E 27.5811388286356 5.5497401779168865 22.12106700104553 0.5
P 29.347969687728103 2.8132362935374164 20.746346954585484 0.5
P 26.175639496962113 6.235226537727426 18.95015544769314 0.5
A 19.497490305208192 11.64784912632698 6.2933061006483 2.5
E 18.37967761362392 9.434167339056428 5.97690804243454 0.5
E 20.615302996792465 13.861530913597532 6.609704158862059 0.5
E 18.562739354970635 11.789068627957182 8.607673770961501 0.5
E 20.43224125544575 11.506629624696778 3.9789384303350976 0.5
P 21.528927099096883 10.494735950152311 7.18414534280665 0.5
P 17.4660535113195 12.800962302501649 5.40246685848995 0.5
A 11.983519968550848 37.74791092287285 32.84156541455086 2.5
E 13.983349094864284 38.03205260282006 31.368491427521896 0.5
E 9.983690842237412 37.463769242925636 34.31463940157982 0.5
E 10.54088901756426 38.78578488658632 31.083261238733318 0.5
E 13.426150919537436 36.710036959159375 34.5998695903684 0.5
P 11.571816914396335 35.4913469106723 31.847372548937052 0.5
P 12.39522302270536 40.0044749350734 33.83575828016466 0.5
A 22.338358918485394 35.957978679834575 25.340531284200022 2.5
E 20.694007925518637 34.49858205908837 26.530603263235296 0.5
E 23.98270991145215 37.41737530058078 24.15045930516475 0.5
E 20.921822498754334 37.957603970918605 25.83542851275739 0.5
E 23.754895338216453 33.958353388750545 24.845634055642655 0.5
P 23.57913866667034 36.306776900318575 27.482681003029786 0.5
P 21.09757917030045 35.609180459350576 23.19838156537026 0.5
A 36.09396214619777 20.345974335167412 29.787498929475642 2.5
E 33.73302777355755 19.529180872266426 29.881505987977906 0.5
E 38.454896518837984 21.162767798068398 29.69349187097338 0.5
E 36.89663323445996 17.994284029642845 29.513141806422798 0.5
E 35.291291057935574 22.69766464069198 30.061856052528487 0.5
P 35.91589470910155 20.57488730086413 27.304377739927695 0.5
P 36.272029583293985 20.117061369470694 32.27062011902359 0.5
A 5.803556094749973 12.225666685835096 25.798907563256563 2.5
E 6.636158105091824 10.730298809502381 23.976642816626956 0.5
E 4.970954084408121 13.72103456216781 27.62117230988617 0.5
E 5.39387946420039 14.03705716172754 24.125279885954992 0.5
E 6.213232725299555 10.414276209942651 27.472535240558134 0.5
P 3.4821472658793615 11.36966466581382 25.440687531763 0.5
P 8.124964923620585 13.081668705856371 26.157127594750126 0.5
70
Properties=species:S:1:pos:R:3:radius:R:1
A 11.68987846448924 16.450095207587605 39.28502229716286 2.5
E 12.272566284789123 18.77867789477439 38.58632524334832 0.5
E 11.107190644189357 14.121512520400822 39.9837193509774 0.5
E 12.700831143904413 16.87143562888666 41.53234224086553 0.5
E 10.678925785074068 16.02875478628855 37.03770235346019 0.5
P 9.478894614693314 17.256429454853887 40.12845308722691 0.5
P 13.900862314285167 15.643760960321321 38.44159150709881 0.5
A 11.412571613834487 26.969983005860552 11.314507892883997 2.5
E 10.991210548788585 24.575524363251546 11.896764418566011 0.5
E 11.83393267888039 29.36444164846956 10.732251367201982 0.5
E 8.95744959993452 27.327143895465618 11.006592326857918 0.5
E 13.867693627734454 26.612822116255487 11.622423458910076 0.5
P 11.200838882004884 27.593684783774023 13.726180619955484 0.5
P 11.62430434566409 26.34628122794708 8.90283516581251 0.5
A 34.16426185556834 11.341079875071578 29.34071728680762 2.5
E 34.51794603216464 12.84425334424774 27.37466107581323 0.5
E 33.810577678972045 9.837906405895417 31.306773497802013 0.5
E 32.528810696219374 12.973631494327707 30.29469564916582 0.5
E 35.79971301491731 9.70852825581545 28.38673892444942 0.5
P 32.30678856945927 10.189887131857649 28.126407499577827 0.5
P 36.02173514167741 12.492272618285508 30.555027074037415 0.5
A 13.507470234348313 0.9751762370916212 5.439956791863187 2.5
E 15.374246189908831 1.1722311994506356 3.788800568621608 0.5
E 11.640694278787795 0.7781212747326067 7.091113015104765 0.5
E 14.688809933825315 -0.9290270885486817 6.548309718082356 0.5
E 12.32613053487131 2.879379562731924 4.331603865644018 0.5
P 14.677762525265114 2.5830254328897517 6.954960724990295 0.5
P 12.337177943431511 -0.6326729587065095 3.924952858736079 0.5
A 27.823251504971626 4.222026280118333 19.632278704272718 2.5
E 26.861775275534622 2.443998082773839 18.16116375646004 0.5
E 28.78472773440863 6.000054477462826 21.103393652085394 0.5
E 25.628293249101638 5.418696556159772 19.620509871302907 0.5
E 30.018209760841614 3.025356004076893 19.64404753724253 0.5
P 27.110705565948624 2.934938101363983 21.65358578259977 0.5
P 28.53579744399463 5.509114458872682 17.610971625945666 0.5
A 19.385948954490264 11.695794315935576 7.137640371854891 2.5
E 17.817820254430437 13.246687158056696 8.314799567676644 0.5
E 20.95407765455009 10.144901473814455 5.960481176033138 0.5
E 21.283093123395535 12.57286672540195 8.509350250416366 0.5
E 17.488804785584993 10.818721906469202 5.765930493293416 0.5
P 18.947980482521142 9.942090982754081 8.864692263591417 0.5
P 19.823917426459385 13.44949764911707 5.410588480118365 0.5
A 11.671235269910635 37.59869053523675 33.37041531916476 2.5
E 10.358713786820797 36.78190699762437 35.335142274522525 0.5
E 12.983756753000474 38.41547407284913 31.405688363807002 0.5
E 10.628894810440435 39.858007778792675 33.613339092226646 0.5
E 12.713575729380835 35.33937329168082 33.12749154610288 0.5
P 13.526178321051407 38.29031922583061 34.897122898031235 0.5
P 9.816292218769863 36.90706184464289 31.843707740298292 0.5
A 21.552798285616134 35.2824520921077 25.84463490919995 2.5
E 19.549231990940363 36.51000481274378 24.99091573939101 0.5
E 23.556364580291905 34.05489937147161 26.69835407900889 0.5
E 22.362365109103607 37.37312413928689 26.95084101542659 0.5
E 20.743231462128662 33.19178004492851 24.73842880297331 0.5
P 20.295689037718915 34.6723662709287 27.917669310662873 0.5
P 22.809907533513353 35.892537913286695 23.771600507737027 0.5
A 35.81041885104296 20.420506757645246 29.741246338101316 2.5
E 33.99404551540477 18.85050521837446 30.438299472568104 0.5
E 37.62679218668115 21.99050829691603 29.044193203634528 0.5
E 37.1924147508308 19.687428437083106 31.691293391095524 0.5
E 34.42842295125512 21.153585078207385 27.79119928510711 0.5
P 36.83065178452051 18.618371540018895 28.340734496366792 0.5
P 34.79018591756541 22.222641975271596 31.14175817983584 0.5
A 5.557294094032378 12.797795564449437 26.395015936585715 2.5
E 6.943789310718762 12.673352181050051 28.47158639251448 0.5
E 4.1707988773459945 12.922238947848824 24.318445480656948 0.5
E 7.2904822514152965 11.486736352609332 25.15922365866878 0.5
E 3.824105936649459 14.108854776289542 27.63080821450265 0.5
P 4.406776895023296 10.672792602715116 27.035853347640174 0.5
P 6.70781129304146 14.922798526183758 25.754178525531255 0.5
70
Properties=species:S:1:pos:R:3:radius:R:1
A 11.476651713367227 16.532979011672175 39.38907842038802 2.5
E 12.115021051715619 18.82112198843769 40.168107499265226 0.5
E 10.838282375018835 14.244836034906662 38.61004934151081 0.5
E 12.51413339834537 15.545854437828583 41.43827749052493 0.5
E 10.439170028389084 17.52010358551577 37.3398793502511 0.5
P 9.293508030236742 16.732945992930937 40.59070101721895 0.5
P 13.659795396497712 16.333012030413414 38.18745582355709 0.5
A 10.808635840589453 26.439259033848472 11.87498857060651 2.5
E 11.103607794222512 25.239246673832398 9.701750920836167 0.5
E 10.513663886956394 27.639271393864547 14.048226220376852 0.5
E 12.957733638684342 27.65823984923631 11.493590581701378 0.5
E 8.659538042494564 25.220278218460635 12.256386559511641 0.5
P 9.565908919341515 28.262458449032074 10.699584941345236 0.5
P 12.05136276183739 24.61605961866487 13.050392199867783 0.5
A 34.278977481014905 10.813881161488528 29.08642572063936 2.5
E 36.76387473648829 10.647872085162383 28.86796149858594 0.5
E 31.794080225541517 10.979890237814672 29.304889942692782 0.5
E 34.17094633638273 12.051674681997001 26.917048742708612 0.5
E 34.387008625647084 9.576087640980054 31.25580269857011 0.5
P 34.02675753428284 8.648169226081645 27.863283492071528 0.5
P 34.531197427746974 12.97959309689541 30.309567949207196 0.5
A 14.052553070541773 0.7828917128388233 5.103249651850445 2.5
E 16.401921475593195 0.5225986769521637 4.289176170637795 0.5
E 11.703184665490351 1.043184748725483 5.917323133063094 0.5
E 13.672668261256069 -1.6682238443850426 4.790647577628696 0.5
E 14.432437879827477 3.234007270062689 5.4158517260721935 0.5
P 14.818161083181884 0.36542307856472495 7.446231578877884 0.5
P 13.286945057901661 1.2003603471129216 2.760267724823005 0.5
A 27.75143896951903 3.7899145502151517 19.367006161479196 2.5
E 26.15215776733754 2.6727869369134796 20.93044005261438 0.5
E 29.35072017170052 4.907042163516824 17.803572270344013 0.5
E 25.965646487966758 5.404962054031859 18.694275328791203 0.5
E 29.5372314510713 2.1748670463984445 20.03973699416719 0.5
P 28.460836495016956 5.337056255430483 21.198155443979967 0.5
P 27.042041444021102 2.2427728449998203 17.535856878978425 0.5
A 19.462999250228727 11.568620833557613 7.841766386735472 2.5
E 21.646187969473985 11.459596652105176 6.628588434405194 0.5
E 17.279810530983468 11.67764501501005 9.05494433906575 0.5
E 19.216532608463552 9.090621082119204 7.620923849235142 0.5
E 19.7094658919939 14.046620584996022 8.062608924235802 0.5
P 20.655870245206245 11.256161300607804 10.016491157737892 0.5
P 18.27012825525121 11.881080366507422 5.667041615733051 0.5
A 11.486671467801354 37.86977710934152 34.372684688320945 2.5
E 13.727478472113301 38.06421063297317 35.464004794573455 0.5
E 9.245864463489408 37.67534358570987 33.281364582068434 0.5
E 12.481188358499699 36.430054372218265 32.587149868071755 0.5
E 10.49215457710301 39.309499846464774 36.158219508570134 0.5
P 10.99705925028783 35.83522702514728 35.740487975114405 0.5
P 11.976283685314879 39.90432719353576 33.004881401527484 0.5
A 21.66272515085267 34.83321113701978 26.884392511139147 2.5
E 23.317417032124833 35.77467791859627 28.504773662979964 0.5
E 20.008033269580505 33.891744355443294 25.26401135929833 0.5
E 20.33438703094312 33.897628235793604 28.78444579305767 0.5
E 22.99106327076222 35.76879403824596 24.984339229220623 0.5
P 20.34078997193952 36.9517778539589 27.003398597666898 0.5
P 22.984660329765816 32.71464442008066 26.765386424611396 0.5
A 35.12855575553589 20.35714078044846 29.425456326977283 2.5
E 33.864886852086315 20.7541272246602 27.305186847508505 0.5
E 36.39222465898547 19.960154336236723 31.54572580644606 0.5
E 32.973345179802514 20.021578129222096 30.647121207928304 0.5
E 37.28376633126927 20.692703431674826 28.203791446026262 0.5
P 35.21915529583101 17.91177793002847 28.91360453877658 0.5
P 35.037956215240776 22.80250363086845 29.937308115177988 0.5
A 5.7625417156072745 13.548997709224484 27.178574436444208 2.5
E 3.270631180754573 13.350689648427087 27.146081370796214 0.5
E 8.254452250459977 13.74730577002188 27.211067502092202 0.5
E 5.574245136805589 15.7120526735116 28.41782324918794 0.5
E 5.9508382944089595 11.385942744937367 25.939325623700476 0.5
P 5.832729212385616 12.311311507274272 29.349566509391586 0.5
P 5.692354218828933 14.786683911174695 25.00758236349683 0.5
70
Properties=species:S:1:pos:R:3:radius:R:1
A 11.489317758336602 16.46098148146039 39.31349548817658 2.5
E 13.209668856477018 17.867367560462057 40.45912644791829 0.5
E 9.768966660196186 15.054595402458723 38.16786452843487 0.5
E 12.966779388362335 14.458552224197891 39.55304548601043 0.5
E 10.01185612831087 18.46341073872289 39.07394549034272 0.5
P 10.43693986474034 15.948775208118477 41.522600624339276 0.5
P 12.541695651932864 16.973187754802304 37.10439035201388 0.5
A 10.494111627991256 26.02259044704514 12.286348985513941 2.5
E 11.841813931866318 25.43666565310438 10.263877567674822 0.5
E 9.146409324116194 26.6085152409859 14.30882040335306 0.5
E 9.03599899149805 27.49525287022708 10.888074003027457 0.5
E 11.952224264484462 24.5499280238632 13.684623968000425 0.5
P 8.975030971992526 24.08921062838709 11.834202507724838 0.5
P 12.013192283989985 27.95597026570319 12.738495463303044 0.5
A 34.08969725968554 10.617307676432532 29.35035209304421 2.5
E 32.3392197669059 10.575358990152312 31.134748028645607 0.5
E 35.84017475246519 10.659256362712751 27.565956157442816 0.5
E 35.51772631171998 9.085027461827417 30.71521485921334 0.5
E 32.661668207651104 12.149587891037646 27.985489326875083 0.5
P 33.01892110482542 8.64237536071926 28.25350170464391 0.5
P 35.16047341454567 12.592239992145803 30.447202481444513 0.5
A 14.570904364576291 1.1715141893384609 5.45710178581556 2.5
E 16.69761398334062 -0.14265232180223952 5.465621084507444 0.5
E 12.444194745811963 2.4856807004791612 5.448582487123676 0.5
E 14.217954633425041 0.5847503545100576 3.0527027570733742 0.5
E 14.923854095727542 1.758278024166864 7.861500814557745 0.5
P 13.304992564831071 -0.8726664736980492 6.141786189122713 0.5
P 15.836816164321512 3.2156948523749707 4.772417382508407 0.5
A 27.492534120798513 3.51588244702155 19.123758721732013 2.5
E 25.400189258363213 4.594237713298059 18.281593122614613 0.5
E 29.584878983233814 2.4375271807450405 19.965924320849414 0.5
E 26.725857831685325 1.3173554269132022 18.21343657569382 0.5
E 28.259210409911702 5.714409467129897 20.034080867770207 0.5
P 28.625803922899795 4.01949823465104 16.953028269995066 0.5
P 26.35926431869723 3.0122666593920595 21.29448917346896 0.5
A 19.332333873499977 11.416265822704982 7.988330392111891 2.5
E 18.004608957286088 11.948196765817414 5.937916770759912 0.5
E 20.660058789713865 10.88433487959255 10.03874401346387 0.5
E 17.32854570942945 10.316053021282963 9.000439469790468 0.5
E 21.336122037570505 12.516478624127002 6.976221314433315 0.5
P 20.019341544779625 9.235307028195551 6.977667641113179 0.5
P 18.64532620222033 13.597224617214414 8.998993143110603 0.5
A 11.759152408085606 38.486262892262424 35.41025746232389 2.5
E 13.367943369201937 36.745834732228175 36.20568279708906 0.5
E 10.150361446969276 40.22669105229667 34.61483212755872 0.5
E 9.846064401324785 36.99983871261404 36.027215675285376 0.5
E 13.672240414846428 39.972687071910805 34.793299249362406 0.5
P 11.71572520676668 39.49197307810749 37.69863267200197 0.5
P 11.802579609404534 37.480552706417356 33.12188225264581 0.5
A 22.26394207939459 34.08552401600752 27.522115770551896 2.5
E 19.814006102934638 33.83801184651715 27.090199763436893 0.5
E 24.71387805585454 34.33303618549789 27.9540317776669 0.5
E 21.77968182279538 34.76787474073239 29.87793611436988 0.5
E 22.7482023359938 33.40317329128265 25.16629542673391 0.5
P 22.379292480895682 31.693216507675366 28.238746128862175 0.5
P 22.148591677893496 36.47783152433967 26.805485412241616 0.5
A 34.24710153683211 19.897601708659153 29.272720470559587 2.5
E 35.860915105550035 21.79974189107463 29.10698425887872 0.5
E 32.63328796811419 17.995461526243677 29.438456682240453 0.5
E 34.11376208584724 19.79340056783525 26.778454503774565 0.5
E 34.38044098781698 20.001802849483056 31.76698643734461 0.5
P 36.15178690618658 18.278649933994018 29.238532825486775 0.5
P 32.342416167477644 21.516553483324287 29.3069081156324 0.5
A 5.9333759502556696 14.252177370343304 27.59668196502974 2.5
E 5.804228594761718 11.77120102317876 27.876105166251804 0.5
E 6.062523305749621 16.733153717507847 27.31725876380768 0.5
E 4.9236386362197795 14.048188071974097 25.318784047475795 0.5
E 6.94311326429156 14.45616666871251 29.87457988258369 0.5
P 3.6500118712672363 14.482708780270682 28.588197850845187 0.5
P 8.216740029244104 14.021645960415926 26.605166079214296 0.5
70
Properties=species:S:1:pos:R:3:radius:R:1
A 12.096971834706913 16.718543440398133 39.238275727970084 2.5
E 14.298763698113458 17.900959053819076 39.301567965855455 0.5
E 9.895179971300369 15.53612782697719 39.17498349008471 0.5
E 12.240225925687255 16.319903264630902 41.7021272404771 0.5
E 11.953717743726571 17.117183616165363 36.77442421546307 0.5
P 10.921560904157278 18.884871976748073 39.65711915568716 0.5
P 13.272382765256548 14.552214904048192 38.819432300253006 0.5
A 10.235384272808258 25.726564098904177 12.694764832014716 2.5
E 8.789572558400957 27.340169172481282 13.942124905533802 0.5
E 11.681195987215558 24.112959025327072 11.44740475849563 0.5
E 8.294875701982987 25.10881461935811 11.244657226671261 0.5
E 12.175892843633529 26.344313578450244 14.14487243735817 0.5
P 10.863122254005017 27.53340228951436 11.085019268294714 0.5
P 9.607646291611498 23.919725908293994 14.304510395734718 0.5
A 34.31082928028294 10.088511360607187 29.2692475915687 2.5
E 36.09976766077535 11.580304496016145 28.36136394707047 0.5
E 32.52189089979053 8.596718225198229 30.17713123606693 0.5
E 32.79088519402229 10.778591405101416 27.408183512384 0.5
E 35.83077336654359 9.398431316112958 31.1303116707534 0.5
P 35.17075337312018 8.204806826096256 27.868466459049955 0.5
P 33.4509051874457 11.972215895118119 30.670028724087445 0.5
A 14.46252807513972 1.759818604888945 6.490887258738948 2.5
E 14.35510961317853 -0.08151283195733883 4.803297316332898 0.5
E 14.569946537100908 3.601150041735229 8.178477201144998 0.5
E 13.216987896374153 3.263444041059481 4.929560832017049 0.5
E 15.708068253905285 0.2561931687184089 8.052213685460847 0.5
P 12.297559036767785 0.9861202868210248 7.472875026233195 0.5
P 16.627497113511655 2.5335169229568653 5.508899491244701 0.5
A 27.32799878435837 2.7378292980015844 18.945506395248522 2.5
E 27.52687694648245 0.9888494863219823 17.170255118676753 0.5
E 27.129120622234293 4.486809109681186 20.72075767182029 0.5
E 28.6195418358652 1.2871026924835927 20.519453301007747 0.5
E 26.036455732851543 4.1885559035195765 17.371559489489297 0.5
P 29.45928103285033 3.780164145534654 18.157360442468438 0.5
P 25.19671653586641 1.6954944504685145 19.733652348028606 0.5
A 18.81904637261225 11.605244107144587 7.9844621814190795 2.5
E 20.371256922867904 13.293915833789976 8.978962159953442 0.5
E 17.266835822356594 9.916572380499199 6.989962202884717 0.5
E 17.421731448321125 11.669360267307164 10.056514333359427 0.5
E 20.216361296903372 11.54112794698201 5.912410029478732 0.5
P 17.44494542652799 13.447600456398394 7.000810986972666 0.5
P 20.193147318696507 9.76288775789078 8.968113375865492 0.5
A 12.679874702509016 39.170079971271456 35.84710785847294 2.5
E 10.231326333676492 38.707113288566724 35.64642717632063 0.5
E 15.12842307134154 39.63304665397619 36.04778854062525 0.5
E 12.20929412575562 40.90638622084433 37.58313623625735 0.5
E 13.150455279262413 37.43377372169858 34.111079480688524 0.5
P 12.861986773130882 37.43200561774233 37.634825043973564 0.5
P 12.49776263188715 40.908154324800584 34.05939067297231 0.5
A 22.55134550248899 33.79197682660167 27.694844579103847 2.5
E 23.589821961249147 35.32479828873047 29.374732971182027 0.5
E 21.51286904372883 32.25915536447287 26.014956187025668 0.5
E 21.915706911712732 32.21447703572527 29.527181336280762 0.5
E 23.186984093265245 35.36947661747807 25.862507821926933 0.5
P 20.3678780247102 34.980233017422044 27.96039494807386 0.5
P 24.734812980267776 32.60372063578129 27.429294210133836 0.5
A 33.506732557191114 19.62885102854018 29.297400013153354 2.5
E 33.04075272470964 21.998251221284153 28.650248158991275 0.5
E 33.97271238967259 17.259450835796205 29.944551867315433 0.5
E 34.78494525764522 19.300307919355202 27.174140321593 0.5
E 32.22851985673701 19.957394137725156 31.420659704713707 0.5
P 35.60412023907504 20.355488594340315 30.447601195490464 0.5
P 31.40934487530719 18.902213462740043 28.147198830816244 0.5
A 6.0075548627907205 14.052221229209113 28.038839343334285 2.5
E 8.031796405764016 13.344802472959914 29.324142762379772 0.5
E 3.9833133198174258 14.759639985458312 26.753535924288798 0.5
E 6.89671849494305 12.90165725052093 26.005224196310397 0.5
E 5.118391230638391 15.202785207897296 30.072454490358172 0.5
P 4.840578337336646 11.94847190140075 28.718842692434187 0.5
P 7.1745313882447945 16.15597055701748 27.358835994234383 0.5
70
Properties=species:S:1:pos:R:3:radius:R:1
A 12.414292882412783 17.16837660944062 39.33653393893747 2.5
E 13.675471707315971 16.362470968616066 37.33404946466451 0.5
E 11.153114057509594 17.974282250265176 41.33901841321043 0.5
E 13.411726986469287 19.442729743554892 39.04940499680367 0.5
E 11.416858778356278 14.89402347532635 39.62366288107127 0.5
P 10.499990612737982 17.82246675569956 37.86765242537481 0.5
P 14.328595152087583 16.514286463181683 40.805415452500135 0.5
A 10.720987492666401 25.382594933485898 12.984209191860634 2.5
E 8.312284631519574 24.756411183905076 13.220946257959056 0.5
E 13.129690353813228 26.00877868306672 12.747472125762211 0.5
E 10.622842225685304 24.83837881844976 10.546136935608766 0.5
E 10.819132759647498 25.926811048522037 15.422281448112502 0.5
P 10.058780551240087 27.74092543023498 12.484450015025498 0.5
P 11.383194434092715 23.024264436736814 13.48396836869577 0.5
A 34.43273389608974 9.450288396961508 29.18564151344763 2.5
E 36.50214401285631 8.306913024582215 29.998189682149103 0.5
E 32.363323779323174 10.5936637693408 28.37309334474616 0.5
E 34.82891783852305 8.537498895951686 26.89220443983875 0.5
E 34.03654995365644 10.36307789797133 31.479078587056513 0.5
P 33.087155933881085 7.423096229286674 29.76002105951072 0.5
P 35.7783118582984 11.477480564636341 28.611261967384543 0.5
A 14.152165301024949 2.6800478015265656 7.07842568665231 2.5
E 13.566667942107308 0.2783725587780208 6.7053990507831776 0.5
E 14.73766265994259 5.08172304427511 7.451452322521443 0.5
E 13.182670934972922 3.2626807114746263 4.848937053257314 0.5
E 15.121659667076976 2.097414891578505 9.307914320047306 0.5
P 11.923427201361262 3.057532795417488 8.1462419454222 0.5
P 16.380903400688638 2.3025628076356432 6.010609427882421 0.5
A 26.98473544244872 1.539021444614012 18.730116500441344 2.5
E 27.415824330493667 3.2053385415500455 20.54327664313838 0.5
E 26.553646554403773 -0.12729565232202145 16.916956357744308 0.5
E 24.522259104308905 1.8451439992315746 19.034253419703443 0.5
E 29.447211780588535 1.2328988899964495 18.425979581179245 0.5
P 27.004039709023626 3.377411042608786 17.036023518554305 0.5
P 26.965431175873814 -0.29936815338076217 20.424209482328383 0.5
A 18.034984251901445 11.482007840242906 8.44882712955654 2.5
E 19.14836552913914 10.176738807094674 6.630406143480355 0.5
E 16.92160297466375 12.787276873391137 10.267248115632723 0.5
E 17.39525194024602 9.350216964146137 9.587339417595638 0.5
E 18.67471656355687 13.613798716339675 7.3103148415174415 0.5
P 20.180007492083707 11.523726082011912 9.73223465929257 0.5
P 15.889961011719183 11.4402895984739 7.165419599820508 0.5
A 13.542141034478997 39.75509946531553 36.395342631656355 2.5
E 15.618293480410426 38.3817474100691 36.164052438178246 0.5
E 11.465988588547567 41.12845152056196 36.626632825134465 0.5
E 12.166180133361852 37.796536346286786 35.67370414364934 0.5
E 14.918101935596141 41.71366258434428 37.11698111966337 0.5
P 13.326914131314878 39.0285083553186 38.77772436828539 0.5
P 13.757367937643115 40.48169057531246 34.01296089502732 0.5
A 22.535036940010954 33.716616968550724 27.678230266828923 2.5
E 21.556112332315106 31.899034113079978 26.26823055904637 0.5
E 23.513961547706803 35.53419982402147 29.088229974611476 0.5
E 20.476680769746668 33.72454590001353 29.09707028895311 0.5
E 24.59339311027524 33.70868803708792 26.259390244704736 0.5
P 23.562108743140136 32.00012936430034 29.177828151487443 0.5
P 21.507965136881772 35.433104572801106 26.178632382170402 0.5
A 33.389816413751 19.586004074757223 29.32675890273387 2.5
E 33.33946504887239 18.988293617876163 26.899784047118295 0.5
E 33.44016777862961 20.183714531638284 31.753733758349448 0.5
E 35.316523873468135 18.030354178101604 29.669908671356925 0.5
E 31.46310895403386 21.141653971412843 28.983609134110818 0.5
P 34.98206736907354 21.449521074618172 28.834781986096466 0.5
P 31.797565458428455 17.722487074896275 29.818735819371277 0.5
A 5.4832301286930285 13.427283127786087 28.371851364084982 2.5
E 5.85745110796669 14.526638657036246 30.585756528942014 0.5
E 5.109009149419367 12.327927598535927 26.15794619922795 0.5
E 3.8986764335767177 15.25251974652437 27.73333678092172 0.5
E 7.067783823809339 11.602046509047803 29.010365947248243 0.5
P 7.380372254620018 14.734925550593639 27.401839483689034 0.5
P 3.586088002766039 12.119640704978535 29.34186324448093 0.5
70
Properties=species:S:1:pos:R:3:radius:R:1
A 12.727002848475365 17.59248550012955 39.383691999554586 2.5
E 13.899816716130417 17.022671355732726 41.516722583649134 0.5
E 11.554188980820314 18.16229964452637 37.25066141546004 0.5
E 10.535005621701883 17.003241387121815 40.43151809824869 0.5
E 14.919000075248848 18.181729613137282 38.33586590086048 0.5
P 12.463079015419746 19.95428634188832 40.15973387613998 0.5
P 12.990926681530985 15.230684658370775 38.60765012296919 0.5
A 10.787022394533365 24.915823507903184 13.261772056810504 2.5
E 10.583235059655678 27.388439132988168 13.569412581985326 0.5
E 10.990809729411051 22.4432078828182 12.954131531635682 0.5
E 13.079437021143153 25.222831488225534 12.31278244689652 0.5
E 8.494607767923576 24.608815527580834 14.210761666724487 0.5
P 11.763396248059642 24.711084477416122 15.554101882020277 0.5
P 9.810648541007087 25.120562538390246 10.96944223160073 0.5
A 34.55342986507369 8.785681448292921 29.28456706247948 2.5
E 34.83401442584853 9.569225832808918 31.641966159312215 0.5
E 34.27284530429885 8.002137063776924 26.927167965646742 0.5
E 35.05938622203506 6.4449944836078785 30.002336313843358 0.5
E 34.04747350811232 11.126368412977964 28.5667978111156 0.5
P 32.121294903953164 8.389143012770553 29.705847016961414 0.5
P 36.985564826194214 9.18221988381529 28.863287107997543 0.5
A 13.724907946737916 4.018513602701588 7.61711625540857 2.5
E 11.484964592545339 2.9740689062683563 7.993665118240101 0.5
E 15.964851300930494 5.062958299134819 7.240567392577039 0.5
E 13.00361248639867 4.742903712032956 5.335671136981302 0.5
E 14.446203407077164 3.2941234933702193 9.898561373835838 0.5
P 12.880877953845946 6.171277929234826 8.567494667149598 0.5
P 14.568937939629887 1.8657492761683496 6.666737843667542 0.5
A 26.77224836119346 0.3215095295125099 18.788635541814468 2.5
E 28.267472855098582 1.24008312194399 17.008038375660398 0.5
E 25.277023867288335 -0.5970640629189703 20.56923270796854 0.5
E 28.77133039075033 -0.2137950650777406 20.19117610454895 0.5
E 24.773166331636588 0.8568141241027604 17.386094979079985 0.5
P 26.63817840955939 2.584178649445935 19.843317343008906 0.5
P 26.906318312827526 -1.941159590420915 17.73395374062003 0.5
A 17.596887348729307 11.018741733715093 9.094457952038363 2.5
E 15.521706387941611 11.719106201147987 7.889006338433275 0.5
E 19.672068309517005 10.318377266282198 10.299909565643452 0.5
E 17.53440504912292 13.131488785019158 10.429521942805582 0.5
E 17.659369648335694 8.905994682411027 7.759393961271143 0.5
P 16.20414905952291 9.880414228132961 10.83068678137366 0.5
P 18.989625637935706 12.157069239297224 7.358229122703067 0.5
A 14.135080738398685 0.2540432637968665 36.7534850061448 2.5
E 14.846877222140492 2.0632575251378156 38.325136851271175 0.5
E 13.423284254656878 -1.5551709975440828 35.181833161018425 0.5
E 15.502359869042767 -1.3990291869220841 38.037190288355255 0.5
E 12.767801607754603 1.9071157145158169 35.469779723934344 0.5
P 12.166859829904471 -0.24001668117984765 38.21362583022022 0.5
P 16.1033016468929 0.7481032087735806 35.29334418206938 0.5
A 22.442221622851722 33.74491073595303 27.150752567980746 2.5
E 22.704963639474954 36.05789216181148 28.062390410731535 0.5
E 22.17947960622849 31.431929310094574 26.239114725229957 0.5
E 22.535527665176307 32.819668034993654 29.471360231242222 0.5
E 22.348915580527137 34.6701534369124 24.83014490471927 0.5
P 19.957818150151034 33.954774663191515 27.33431867835398 0.5
P 24.92662509555241 33.53504680871454 26.96718645760751 0.5
A 33.309366540786534 19.337485473141733 29.42134529619896 2.5
E 34.43750231307895 18.722776638143344 27.27671415601441 0.5
E 32.18123076849412 19.952194308140122 31.56597643638351 0.5
E 35.48694716201005 20.163578176120087 30.330033077649716 0.5
E 31.13178591956302 18.51139277016338 28.512657514748206 0.5
P 32.82413224959704 21.615577634196903 28.513136185700176 0.5
P 33.79460083197603 17.059393312086563 30.329554406697746 0.5
A 4.9538080210432955 12.479767263943318 29.016377784807315 2.5
E 7.307599815101433 11.65189502208259 29.17223586571187 0.5
E 2.6000162269851583 13.307639505804046 28.86051970390276 0.5
E 4.312378576938036 10.418648483267294 27.755283957932573 0.5
E 5.595237465148555 14.540886044619342 30.277471611682056 0.5
P 4.407701384513784 11.33241512832703 31.169364226575436 0.5
P 5.499914657572807 13.627119399559605 26.863391343039194 0.5
70
Properties=species:S:1:pos:R:3:radius:R:1
A 12.57439422255636 17.448744526387035 39.196924908873804 2.5
E 14.832356992584087 16.42981015850433 39.53363974834114 0.5
E 10.316431452528635 18.46767889426974 38.86021006940647 0.5
E 13.23174040021256 19.38204675462127 40.63922810065653 0.5
E 11.917048044900161 15.5154422981528 37.75462171709108 0.5
P 13.422627758730698 18.662876005368343 37.1828780822441 0.5
P 11.726160686382023 16.234613047405727 41.210971735503506 0.5
A 10.462653465683756 24.72155860179238 13.19993805758547 2.5
E 9.863939213704201 26.533664205829773 14.81481097032307 0.5
E 11.06136771766331 22.90945299775499 11.58506514484787 0.5
E 11.169009867011814 23.260347499087473 15.10149603662149 0.5
E 9.756297064355698 26.18276970449729 11.29838007854945 0.5
P 8.140455825778787 23.80989232888932 13.361995849967087 0.5
P 12.784851105588725 25.633224874695443 13.037880265203853 0.5
A 34.84828825022599 8.219833800267827 29.240215945420232 2.5
E 34.39104258992516 10.112476600623685 27.672150373960736 0.5
E 35.30553391052682 6.327190999911968 30.808281516879727 0.5
E 34.81932871048818 9.81054420515369 31.16863544149608 0.5
E 34.8772477899638 6.6291233953819635 27.311796449344385 0.5
P 32.390629252074774 7.848965039048464 29.50923009143746 0.5
P 37.30594724837721 8.59070256148719 28.971201799403005 0.5
A 12.864605330163375 5.032520859145041 8.100410200860866 2.5
E 10.504985510786218 4.8474255451642465 8.905353697476292 0.5
E 15.224225149540532 5.217616173125836 7.29546670424544 0.5
E 12.126222419030562 4.413471874102266 5.793557576469107 0.5
E 13.602988241296188 5.651569844187817 10.407262825252625 0.5
P 12.494490503997024 7.4475815372354415 7.570790585861581 0.5
P 13.234720156329725 2.617460181054641 8.630029815860151 0.5
A 26.79047339117432 40.20400995513051 18.987562288479268 2.5
E 25.021689224828748 41.871974336412535 18.40506988881909 0.5
E 28.559257557519892 38.53604557384848 19.570054688139447 0.5
E 25.070996551919826 38.76819694101693 20.09744533987327 0.5
E 28.509950230428814 41.639822969244086 17.877679237085264 0.5
P 26.384515299550603 39.01811965190733 16.82449450947449 0.5
P 27.196431482798037 41.38990025835369 21.150630067484045 0.5
A 17.32576112581677 10.55985148006142 9.564754653098294 2.5
E 17.5391287934689 11.613348937087029 7.3076287491126894 0.5
E 17.112393458164636 9.506354023035811 11.8218805570839 0.5
E 17.242569580916708 8.29873758130509 8.50153167379919 0.5
E 17.40895267071683 12.82096537881775 10.627977632397398 0.5
P 19.815249708891493 10.393999000751958 9.722677260248359 0.5
P 14.836272542742044 10.725703959370883 9.40683204594823 0.5
A 13.88684360588033 0.5940785445484873 36.90768368724294 2.5
E 11.429758901221835 0.6257865874876029 37.36782426808963 0.5
E 16.343928310538825 0.5623705016093717 36.447543106396246 0.5
E 14.288379310917998 1.9683221935523416 38.9571283609895 0.5
E 13.485307900842662 -0.780165104455367 34.85823901349637 0.5
P 14.113788162344813 -1.4940902688335211 38.263429671970755 0.5
P 13.659899049415847 2.6822473579304957 35.55193770251512 0.5
A 22.666131263225193 34.01530080212465 26.3044515358765 2.5
E 23.85521466687604 31.92454596317433 25.62267088011626 0.5
E 21.477047859574345 36.10605564107497 26.986232191636738 0.5
E 20.47499851095109 32.95485941078068 25.734889144704926 0.5
E 24.857264015499297 35.07574219346862 26.874013927048072 0.5
P 22.479000503929093 33.146849157569115 28.641281401312785 0.5
P 22.853262022521292 34.883752446680184 23.967621670440213 0.5
A 33.48730626665693 18.87245774818041 29.35166510167887 2.5
E 33.56134107867395 20.44336952706906 27.408277587681987 0.5
E 33.41327145463991 17.30154596929176 31.29505261567575 0.5
E 33.94325980797826 20.77556805297018 30.90738922116793 0.5
E 33.0313527253356 16.96934744339064 27.79594098218981 0.5
P 31.030351807419514 19.27296661294169 29.581811651688827 0.5
P 35.944260725894345 18.471948883419127 29.12151855166891 0.5
A 4.9348989312718325 11.58914883667974 29.431505619679793 2.5
E 7.417139288563083 11.875668471980378 29.51143876189323 0.5
E 2.4526585739805813 11.302629201379103 29.351572477466355 0.5
E 4.6467804168474816 13.737958315710106 30.67633715224855 0.5
E 5.2230174456961835 9.440339357649375 28.186674087111037 0.5
P 4.86093589805368 12.834349351222986 27.264940331418043 0.5
P 5.008861964489985 10.343948322136495 31.598070907941544 0.5
70
Properties=species:S:1:pos:R:3:radius:R:1
A 12.04551814481526 17.209997204897956 39.23745407545757 2.5
E 14.3461359219989 17.779426180832093 38.44189861876431 0.5
E 9.744900367631619 16.64056822896382 40.03300953215083 0.5
E 12.148511513491549 19.09064902295554 40.88139479982893 0.5
E 11.94252477613897 15.329345386840373 37.59351335108621 0.5
P 11.072610025146949 18.755603681529223 37.53024863671267 0.5
P 13.01842626448357 15.664390728266689 40.94465951420247 0.5
A 10.406952106430648 24.21703906396195 13.063096289048149 2.5
E 9.85774389481068 25.31727284044261 10.886434630135252 0.5
E 10.956160318050616 23.116805287481288 15.239757947961046 0.5
E 8.6536536383315 22.48797429354846 12.631495198366865 0.5
E 12.160250574529796 25.946103834375435 13.494697379729432 0.5
P 12.102332542218297 22.785319588363745 11.911634382972908 0.5
P 8.711571670642998 25.648758539560152 14.21455819512339 0.5
A 35.179467141689344 7.826506966245834 29.45950515139263 2.5
E 34.29708045593269 5.622081124960623 28.67726449336412 0.5
E 36.061853827446 10.030932807531045 30.24174580942114 0.5
E 36.58283572615806 7.996453436673913 27.39754617670016 0.5
E 33.77609855722063 7.656560495817755 31.5214641260851 0.5
P 33.30811726715354 8.99339381057245 28.28203976353114 0.5
P 37.050817016225146 6.659620121919219 30.63697053925412 0.5
A 11.966369966470033 5.481998629559148 8.490703484566318 2.5
E 11.28441707783094 3.793852281553477 10.203917471606633 0.5
E 12.648322855109127 7.170144977564819 6.777489497526002 0.5
E 10.017888184709408 4.825758533022439 7.068463110423082 0.5
E 13.914851748230658 6.138238726095857 9.912943858709554 0.5
P 10.556278124134083 7.205225498955999 9.62742251439075 0.5
P 13.376461808805983 3.758771760162297 7.353984454741886 0.5
A 26.514417283519737 40.03312853404016 19.254325505459622 2.5
E 27.579344534789946 39.55757945031998 17.04304012847249 0.5
E 25.44949003224953 40.50867761776034 21.465610882446754 0.5
E 28.55404487339381 39.17856646522052 20.420362796956482 0.5
E 24.474789693645665 40.8876906028598 18.088288213962763 0.5
P 27.49209271234502 42.3339059547199 19.230366866856773 0.5
P 25.536741854694455 37.732351113360416 19.27828414406247 0.5
A 17.373194732366045 9.536722319321363 9.810438267035298 2.5
E 16.44181362587593 11.799086466275686 9.296397703411692 0.5
E 18.30457583885616 7.274358172367041 10.324478830658904 0.5
E 16.358524648104673 8.64137327249852 7.708345332729104 0.5
E 18.387864816627417 10.432071366144207 11.912531201341492 0.5
P 19.459572899089387 10.11122954375866 8.558652504817545 0.5
P 15.286816565642702 8.962215094884067 11.062224029253052 0.5
A 14.069220975737924 0.5167482949908143 37.32117884777487 2.5
E 15.903446158985554 -1.1819163879857144 37.333679725506364 0.5
E 12.234995792490293 2.2154129779673433 37.30867797004337 0.5
E 12.4012924811802 -1.2876767885901357 36.86067406519178 0.5
E 15.737149470295648 2.3211733785717645 37.78168363035795 0.5
P 13.747300932593342 0.18722073537289124 39.77836811058505 0.5
P 14.391141018882506 0.8462758546087374 34.863989584964685 0.5
A 22.652115568343017 34.13898913479066 26.052242249241033 2.5
E 20.422759011249124 33.80483243160152 24.971358981234257 0.5
E 24.88147212543691 34.47314583797981 27.13312551724781 0.5
E 22.662780165608186 36.52114187513657 25.293800037844242 0.5
E 22.641450971077848 31.756836394444758 26.810684460637823 0.5
P 21.520808533224603 34.81993525554989 28.175083923251442 0.5
P 23.783422603461432 33.45804301403143 23.929400575230623 0.5
A 33.57041712426281 19.151086568110443 29.505708433495393 2.5
E 32.87678593885819 21.334801541014915 28.505576094378533 0.5
E 34.26404830966743 16.96737159520597 30.505840772612252 0.5
E 32.148070151559864 19.616470497542288 31.50829348474033 0.5
E 34.99276409696576 18.6857026386786 27.503123382250454 0.5
P 31.635008932723544 18.026450308984963 28.392430203768747 0.5
P 35.50582531580208 20.275722827235924 30.61898666322204 0.5
A 5.198507991469706 11.342297137854153 29.456852030846083 2.5
E 6.9131109984935275 10.634236171072477 27.780908656018834 0.5
E 3.483904984445884 12.05035810463583 31.13279540567333 0.5
E 3.6866597969414974 9.506655996603852 28.685660331426693 0.5
E 6.710356185997914 13.177938279104454 30.228043730265473 0.5
P 6.21065993905907 9.79987330898228 31.144002636785448 0.5
P 4.186356043880341 12.884720966726027 27.769701424906717 0.5
70
Properties=species:S:1:pos:R:3:radius:R:1
A 11.433780222518743 16.79735128295057 39.5735429533363 2.5
E 12.782643410202379 18.352169455183848 38.15470238716744 0.5
E 10.084917034835108 15.242533110717291 40.99238351950516 0.5
E 10.868011399918116 18.68831697989781 41.107868333541944 0.5
E 11.999549045119371 14.906385586003328 38.03921757313066 0.5
P 9.406349893188953 17.30409498963401 38.20141428755758 0.5
P 13.461210551848534 16.290607576267128 40.94567161911502 0.5
A 10.367407675643179 23.66568702254726 12.965094771040139 2.5
E 8.515259684334861 25.32658714364748 12.718196804213994 0.5
E 12.219555666951496 22.00478690144704 13.211992737866284 0.5
E 10.116467585377622 23.028436504092152 10.560736052415304 0.5
E 10.618347765908736 24.30293754100237 15.369453489664973 0.5
P 12.027701893362174 25.42219565174867 12.326267293429083 0.5
P 8.707113457924184 21.90917839334585 13.603922248651195 0.5
A 35.44959172353587 7.799126298871402 30.06848230257351 2.5
E 34.24896234740531 9.935253131185295 29.57305192659691 0.5
E 36.650221099666425 5.662999466557508 30.56391267855011 0.5
E 33.530604781829126 7.048923883749158 31.484351453979496 0.5
E 37.36857866524261 8.549328713993646 28.652613151167525 0.5
P 34.388470515223304 6.738862891687738 28.068516480701565 0.5
P 36.51071293184843 8.859389706055065 32.06844812444545 0.5
A 11.522203245874636 5.482090863813065 8.49871916472257 2.5
E 10.705773828646187 3.3461473670078172 9.509257825604934 0.5
E 12.338632663103084 7.618034360618313 7.488180503840205 0.5
E 9.42764011867356 6.631156489655986 9.235233586627805 0.5
E 13.616766373075711 4.333025237970144 7.7622047428173335 0.5
P 12.615934617305573 6.088220854788701 10.663518952505775 0.5
P 10.428471874443698 4.875960872837429 6.333919376939364 0.5
A 26.27601798319238 40.050459219919574 19.8530132501531 2.5
E 25.35048113298867 41.54955792660644 18.079292695351107 0.5
E 27.201554833396088 38.55136051323271 21.626733804955094 0.5
E 25.765996986076267 41.782030358800284 21.582620134245083 0.5
E 26.78603898030849 38.318888081038864 18.12340636606112 0.5
P 24.01034807753136 39.04827936649632 20.188237682402395 0.5
P 28.541687888853396 41.05263907334283 19.517788817903806 0.5
A 17.542016164537042 8.94675847160023 9.976859608868603 2.5
E 15.64034978419749 7.324054376202248 9.954579647770123 0.5
E 19.443682544876594 10.569462566998212 9.999139569967083 0.5
E 16.325391661797116 10.394980952191439 8.342088534361615 0.5
E 18.758640667276968 7.498535991009021 11.61163068337559 0.5
P 16.468009741269118 10.179431609739666 11.868162635168297 0.5
P 18.616022587804967 7.714085333460793 8.085556582568909 0.5
A 14.499339095144713 0.13281491258685382 37.62120692147639 2.5
E 12.855363087507357 1.5422550743621035 38.8705352677022 0.5
E 16.14331510278207 -1.2766252491883958 36.371878575250584 0.5
E 16.277309267089457 0.7470239422753239 39.2678912675244 0.5
E 12.721368923199968 -0.48139411710161617 35.97452257542839 0.5
P 13.877917375228888 -1.8385363240576278 39.02748191158066 0.5
P 15.120760815060537 2.1041661492313355 36.21493193137213 0.5
A 22.545405317233605 34.391589912715204 26.20354045279865 2.5
E 21.895727668389473 36.79790449991248 26.00971305526408 0.5
E 23.195082966077738 31.985275325517932 26.397367850333218 0.5
E 20.960724273067953 33.81507793509202 24.357891534959695 0.5
E 24.130086361399258 34.96810189033839 28.049189370637603 0.5
P 24.366587609277833 34.74835881144331 24.52842522928538 0.5
P 20.724223025189378 34.0348210139871 27.87865567631192 0.5
A 33.419387952026945 19.286511006015253 30.045196452776597 2.5
E 32.33415898012541 19.6227009776229 32.27213479533041 0.5
E 34.50461692392848 18.950321034407605 27.818258110222786 0.5
E 31.29112715568773 19.942074127823044 28.90908775371144 0.5
E 35.54764874836616 18.630947884207462 31.181305151841755 0.5
P 34.15612675330691 21.675488464325902 30.04357091517703 0.5
P 32.68264915074698 16.897533547704604 30.046821990376166 0.5
A 5.595694103231746 11.057654553821425 29.146542433892492 2.5
E 6.4342831127758675 13.149516663164446 28.064469705944322 0.5
E 4.757105093687624 8.965792444478405 30.22861516184066 0.5
E 3.2876634979988832 12.016219170868835 29.210952062486303 0.5
E 7.903724708464608 10.099089936774016 29.08213280529868 0.5
P 5.126905026585703 10.080277047203776 26.89377302465913 0.5
P 6.064483179877788 12.035032060439075 31.399311843125854 0.5
70
Properties=species:S:1:pos:R:3:radius:R:1
A 10.845283050575915 16.631853434382283 40.031709264271676 2.5
E 12.265490036227813 18.59262595992127 40.65491326056672 0.5
E 9.425076064924017 14.671080908843294 39.40850526797663 0.5
E 8.90890196966157 17.649796045400482 41.241759325282196 0.5
E 12.78166413149026 15.613910823364083 38.821659203261156 0.5
P 10.149984246187717 17.801966225426813 37.93471245243542 0.5
P 11.540581854964113 15.461740643337752 42.12870607610793 0.5
A 10.51319405292462 23.53069935846977 12.824621000687523 2.5
E 9.35828441070404 22.510777336965724 10.855879578266038 0.5
E 11.668103695145199 24.55062137997382 14.79336242310901 0.5
E 11.508328763506704 25.275936220191944 11.336718045423975 0.5
E 9.518059342342536 21.7854624967476 14.312523955951072 0.5
P 8.531808016307375 25.00172191660353 13.224873430237887 0.5
P 12.494580089541865 22.059676800336014 12.42436857113716 0.5
A 35.704005394229114 8.022892702133744 30.95063783098169 2.5
E 35.080114806168154 6.644036225621031 28.96078473306031 0.5
E 36.32789598229007 9.401749178646456 32.94049092890307 0.5
E 35.78040012446272 10.065524441956413 29.511256220476348 0.5
E 35.627610663995505 5.980260962311075 32.390019441487034 0.5
P 33.284310293742095 8.44290507415077 31.41825437050007 0.5
P 38.12370049471613 7.602880330116716 30.483021291463313 0.5
A 10.749579226532026 5.741298260118316 8.317809371773777 2.5
E 8.94266509597559 5.284856819133793 9.98415943575975 0.5
E 12.556493357088462 6.197739701102838 6.651459307787802 0.5
E 12.16036426158802 6.743412762790787 10.122096518653168 0.5
E 9.338794191476032 4.739183757445844 6.513522224894386 0.5
P 11.746949222900549 3.4968767902325717 8.784527012171456 0.5
P 9.752209230163503 7.98571973000406 7.851091731376098 0.5
A 25.993895704260083 40.18744624119438 20.503081063511548 2.5
E 24.572626737209685 38.15444635416114 20.191783805854655 0.5
E 27.41516467131048 42.22044612822762 20.81437832116844 0.5
E 23.937211733289217 41.59357515496516 20.710089569162207 0.5
E 28.05057967523095 38.7813173274236 20.29607255786089 0.5
P 25.987145381793606 39.8136643031837 22.974971331295695 0.5
P 26.00064602672656 40.56122817920506 18.0311907957274 0.5
A 17.28571821177753 8.840390000954157 10.195928861089994 2.5
E 19.61930860420845 8.373534800100073 9.430159899985277 0.5
E 14.952127819346615 9.307245201808241 10.961697822194711 0.5
E 17.142074528447168 10.75286343973018 8.592241909650506 0.5
E 17.429361895107895 6.927916562178133 11.799615812529483 0.5
P 16.40043725490836 7.299451466354711 8.437581324340474 0.5
P 18.170999168646702 10.381328535553603 11.954276397839514 0.5
A 14.439753315160477 39.58930999288168 37.867991742129675 2.5
E 15.348635442872883 37.438703776641056 36.97422097700703 0.5
E 13.53087118744807 41.739916209122306 38.76176250725232 0.5
E 12.655567870690199 38.32968956096307 39.084560140218876 0.5
E 16.223938759630755 40.848930424800294 36.651423344040474 0.5
P 15.936621905806001 39.39373578661685 39.860762464560764 0.5
P 12.942884724514952 39.78488419914651 35.875221019698586 0.5
A 22.319307098570246 34.97766364777856 26.48453299810749 2.5
E 21.290282886625324 36.74133252270688 25.042110982592895 0.5
E 23.348331310515167 33.21399477285025 27.926955013622084 0.5
E 24.12058137676237 36.57657891321425 27.154518780554504 0.5
E 20.51803282037812 33.37874838234288 25.814547215660475 0.5
P 20.924129638189118 35.74117008099756 28.41340255836257 0.5
P 23.714484558951373 34.21415721455956 24.55566343785241 0.5
A 33.84192103658074 19.005203726963046 30.345472032237154 2.5
E 32.30132253826313 17.11844377787253 29.7827170575902 0.5
E 35.38251953489836 20.891963676053564 30.908227006884108 0.5
E 31.91100792668519 20.592731584852046 30.309004752927134 0.5
E 35.77283414647629 17.417675869074046 30.381939311547175 0.5
P 33.457043355991914 18.59302391797826 32.781037054167435 0.5
P 34.22679871716957 19.41738353594783 27.90990701030687 0.5
A 5.990862150595535 11.041579838530755 28.986110966159554 2.5
E 6.9940898644854546 10.618534326763582 31.236570174645536 0.5
E 4.987634436705616 11.464625350297927 26.735651757673573 0.5
E 3.7749832690051135 10.242672296547724 29.82374305812279 0.5
E 8.206741032185956 11.840487380513785 28.148478874196318 0.5
P 5.413441215568683 13.372412143596646 29.68167248713123 0.5
P 6.5682830856223875 8.710747533464863 28.290549445187878 0.5
70
Properties=species:S:1:pos:R:3:radius:R:1
A 10.601415336884061 16.516188136864706 0.1461856782896228 2.5
E 11.752963144767508 16.78559132449815 2.348765885376961 0.5
E 9.449867529000615 16.246784949231262 -2.0563945287977154 0.5
E 8.98014552474865 18.312636116916753 0.7740860296404238 0.5
E 12.222685149019473 14.719740156812659 -0.4817146730611782 0.5
P 12.116480299985765 18.23380176555452 -0.8560027172337791 0.5
P 9.086350373782357 14.798574508174891 1.1483740738130246 0.5
A 10.93138827969338 23.3947461438891 13.108520467870497 2.5
E 12.977827654382686 23.28929464329335 11.67640110596505 0.5
E 8.884948905004073 23.500197644484853 14.540639829775943 0.5
E 10.35269306161001 25.61601605002878 12.11802975683541 0.5
E 11.51008349777675 21.173476237749423 14.099011178905583 0.5
P 9.617159330731365 22.252450216775003 11.314652500429785 0.5
P 12.245617228655394 24.5370420710032 14.902388435311208 0.5
A 36.22065003686693 8.108106608328018 31.68522249409467 2.5
E 34.22682439777487 7.483039958138968 30.312651547396502 0.5
E 38.21447567595899 8.733173258517068 33.057793440792835 0.5
E 37.27852966620993 9.150133836861697 29.67398656939194 0.5
E 35.16277040752393 7.06607937979434 33.696458418797405 0.5
P 35.145684916167845 10.29293404723828 32.25177262556103 0.5
P 37.29561515756601 5.923279169417757 31.11867236262831 0.5
A 10.106483272101787 5.811447938729838 8.48865632951858 2.5
E 10.6397176531339 5.286709298498002 10.874093491619375 0.5
E 9.573248891069674 6.336186578961674 6.103219167417786 0.5
E 12.545654596484734 5.798994013697429 7.94067079133552 0.5
E 7.66731194771884 5.823901863762247 9.03664186770164 0.5
P 9.979580375398086 3.36717007825704 7.979341696301274 0.5
P 10.233386168805488 8.255725799202636 8.997970962735886 0.5
A 25.703326481322577 40.155594689536315 20.965098817115777 2.5
E 27.960768325436636 40.868459831251364 20.16149467938801 0.5
E 23.44588463720852 39.442729547821266 21.768702954843544 0.5
E 26.650981175683732 39.71475311804353 23.23613586857525 0.5
E 24.755671786961422 40.5964362610291 18.694061765656304 0.5
P 25.197454065884774 42.51090401074533 21.63338850035783 0.5
P 26.20919889676038 37.8002853683273 20.296809133873722 0.5
A 17.10398401366063 8.787494170915869 10.449097695095258 2.5
E 15.488867594290532 8.965199108208333 12.349050301647436 0.5
E 18.719100433030725 8.609789233623404 8.54914508854308 0.5
E 18.748054759396474 10.180696630375365 11.716385464298844 0.5
E 15.459913267924781 7.394291711456372 9.181809925891672 0.5
P 18.072710153959378 6.719304657786256 11.466035157717222 0.5
P 16.13525787336188 10.85568368404548 9.432160232473294 0.5
A 14.696047506282714 39.13368366711131 38.55551261412203 2.5
E 13.515634349825847 36.93275307308293 38.44357825688806 0.5
E 15.87646066273958 41.3346142611397 38.667446971356 0.5
E 12.650366254760971 40.180775026071885 39.539782853008965 0.5
E 16.741728757804456 38.08659230815074 37.571242375235094 0.5
P 15.51568949961393 38.577352644916836 40.8508737614163 0.5
P 13.876405512951496 39.69001468930579 36.26015146682776 0.5
A 22.327785652541543 35.028170770943625 26.747853388412757 2.5
E 23.70444985705056 36.93222090017599 25.893810782101475 0.5
E 20.951121448032527 33.12412064171126 27.60189599472404 0.5
E 21.09186650977644 34.9476955360841 24.57621170316119 0.5
E 23.563704795306645 35.10864600580315 28.919495073664326 0.5
P 24.009243216850415 33.41011117935075 25.85086753708401 0.5
P 20.64632808823267 36.6462303625365 27.644839239741504 0.5
A 34.15238518143381 18.779116340510434 30.216750424604495 2.5
E 35.29196683795028 19.54922106842715 28.129098069404552 0.5
E 33.01280352491734 18.009011612593717 32.30440277980444 0.5
E 32.44093954260391 20.58144652888791 29.947381314657413 0.5
E 35.86383082026371 16.97678615213296 30.486119534551577 0.5
P 32.730306606438155 17.227167694419368 28.867992504726057 0.5
P 35.57446375642946 20.3310649866015 31.565508344482932 0.5
A 6.0664165909148515 11.046253223402239 28.810313713123787 2.5
E 5.375544207992139 8.875417012685666 29.839957096416747 0.5
E 6.757288973837564 13.217089434118812 27.780670329830826 0.5
E 6.61785546973822 9.860221449684294 26.67976359762402 0.5
E 5.514977712091483 12.232284997120184 30.940863828623552 0.5
P 3.7279105478524657 11.40791436034641 28.00372167957304 0.5
P 8.404922633977238 10.684592086458068 29.616905746674533 0.5
70
Properties=species:S:1:pos:R:3:radius:R:1
A 10.990405090823252 16.119607731535314 0.4222565182627497 2.5
E 11.163993096827067 18.298653597662046 1.6353625801916372 0.5
E 10.816817084819437 13.940561865408581 -0.7908495436661379 0.5
E 12.965919731279286 16.74170143567751 -0.9778653795059798 0.5
E 9.014890450367218 15.49751402739312 1.822378416031479 0.5
P 12.512643281618793 15.063786469870426 2.1009561203062113 0.5
P 9.468166900027711 17.175428993200203 -1.2564430837807117 0.5
A 11.146140861221 23.218177087021857 13.801776829246238 2.5
E 9.798903111835928 22.51099122070594 11.818134069796848 0.5
E 12.49337861060607 23.925362953337775 15.785419588695628 0.5
E 12.21548929756417 20.959798185833005 13.880635312344694 0.5
E 10.076792424877828 25.47655598821071 13.722918346147782 0.5
P 12.960374685269985 24.024162750138252 12.28225626586825 0.5
P 9.331907037172014 22.412191423905462 15.321297392624226 0.5
A 36.64797132422012 7.9064768296265715 32.06293336654276 2.5
E 34.25502349271074 8.450253431484837 32.54053956724073 0.5
E 39.040919155729505 7.362700227768305 31.585327165844788 0.5
E 36.77254087114518 9.841095638262617 30.484411116699683 0.5
E 36.523401777295064 5.971858020990526 33.641455616385834 0.5
P 37.36091108580771 9.393607312315376 33.94180532168082 0.5
P 35.93503156263254 6.419346346937767 30.1840614114047 0.5
A 9.285320435597479 5.8463703810580805 8.564309200202937 2.5
E 10.164608924985284 5.3944930411103105 6.268082159583784 0.5
E 8.406031946209673 6.2982477210058505 10.86053624082209 0.5
E 8.537580458994135 8.1165004510071 7.831237312253846 0.5
E 10.033060412200822 3.576240311109061 9.297381088152028 0.5
P 7.067723384774652 4.901745410419606 7.901024204875198 0.5
P 11.502917486420305 6.790995351696555 9.227594195530674 0.5
A 25.72048184521167 40.04205313474852 20.967404351214736 2.5
E 26.57383624495824 39.30022187949509 18.73772440620801 0.5
E 24.867127445465098 40.78388439000195 23.197084296221462 0.5
E 27.37308670519656 41.91790678226898 20.975787062079 0.5
E 24.06787698522678 38.16619948722806 20.95902164035047 0.5
P 24.04994796492357 41.518826469358885 19.8367155907699 0.5
P 27.391015725499766 38.56527980013816 22.098093111659573 0.5
A 16.68984624590193 8.670009285194807 10.331471562611476 2.5
E 16.39981187844634 10.676286132713104 8.868347071391371 0.5
E 16.97988061335752 6.66373243767651 11.794596053831581 0.5
E 18.862353149157393 9.588419878792402 11.160166764043513 0.5
E 14.517339342646466 7.751598691597212 9.50277636117944 0.5
P 15.487309834393567 9.845328472769472 12.181479937272746 0.5
P 17.89238265741029 7.4946900976201425 8.481463187950206 0.5
A 15.05512945030458 38.61084617766378 39.50685541886801 2.5
E 13.357997242828624 39.48256197001362 37.89135121035857 0.5
E 16.752261657780537 37.73913038531394 41.12235962737744 0.5
E 15.431125219510658 40.92941034033136 40.362943851875215 0.5
E 14.679133681098502 36.2922820149962 38.6507669858608 0.5
P 13.258363062628394 38.272657175835676 41.211923965043084 0.5
P 16.851895837980766 38.94903517949189 37.80178687269293 0.5
A 22.56309709304043 35.41023634623147 26.905719856833503 2.5
E 22.749939456673626 37.612836713732236 25.737969218966544 0.5
E 22.376254729407233 33.20763597873071 28.073470494700462 0.5
E 24.992886837004374 35.511386995638304 27.485280333620377 0.5
E 20.133307349076485 35.30908569682464 26.32615938004663 0.5
P 22.00523355123042 36.58850633533045 29.03890247946784 0.5
P 23.12096063485044 34.23196635713249 24.772537234199167 0.5
A 34.16411511990687 18.71083458749886 30.260280715573828 2.5
E 36.2060259990808 17.890462314742106 31.4466994003574 0.5
E 32.122204240732934 19.53120686025561 29.073862030790256 0.5
E 35.291500581778266 20.901212407733638 29.834549550417833 0.5
E 33.03672965803547 16.52045676726408 30.686011880729822 0.5
P 35.06389397155469 17.828092077637695 28.101307885867097 0.5
P 33.26433626825904 19.593577097360022 32.419253545280554 0.5
A 6.3496107175886225 10.602532861834966 28.768738632598673 2.5
E 5.1809243978257635 11.371945340007215 26.696981715285663 0.5
E 7.5182970373514815 9.833120383662717 30.840495549911683 0.5
E 7.180799763403441 8.584030080809177 27.55022671508989 0.5
E 5.518421671773804 12.621035642860756 29.987250550107454 0.5
P 8.397364866923672 11.860964807323601 28.080950887391552 0.5
P 4.301856568253573 9.344100916346331 29.456526377805794 0.5
70
Properties=species:S:1:pos:R:3:radius:R:1
A 11.097288567892756 15.67746374729928 0.12658589311091506 2.5
E 13.589152474730485 15.4926247473575 0.046281385758941654 0.5
E 8.605424661055027 15.86230274724106 0.20689040046288848 0.5
E 10.936845967885022 13.255108170837836 0.7236215983162407 0.5
E 11.25773116790049 18.099819323760723 -0.4704498120944106 0.5
P 11.219241189444237 16.267402731676295 2.552920485208643 0.5
P 10.975335946341275 15.087524762922264 -2.299748698986813 0.5
A 10.996560340865464 23.061255308693198 14.900289417104627 2.5
E 10.009767308117343 20.878890572982368 14.183683757870337 0.5
E 11.983353373613586 25.24362004440403 15.616895076338917 0.5
E 13.243646920239838 22.305805149435162 14.106628934483986 0.5
E 8.74947376149109 23.816705467951234 15.693949899725268 0.5
P 10.520281624863596 24.018636746367783 12.640515232040817 0.5
P 11.472839056867333 22.103873871018614 17.16006360216844 0.5
A 36.83662631064579 8.406641126653128 32.117262171167575 2.5
E 35.91689759499864 7.276565471431094 34.14877099543779 0.5
E 37.756355026292944 9.53671678187516 30.085753346897356 0.5
E 37.18032236401563 10.501255348129455 33.438043866258155 0.5
E 36.49293025727595 6.3120269051768 30.796480476076997 0.5
P 39.13575051618825 7.641448159707642 32.73249189316183 0.5
P 34.53750210510333 9.171834093598612 31.50203244917332 0.5
A 8.62894783533809 5.919333729362881 8.081278648160055 2.5
E 7.986711376932355 6.186070646315862 10.482608227503068 0.5
E 9.271184293743826 5.6525968124099 5.679949068817042 0.5
E 9.900310946662158 8.069542480779761 8.182462463533154 0.5
E 7.357584724014023 3.7691249779460008 7.980094832786954 0.5
P 10.683496002370847 4.672155417146264 8.76930342015425 0.5
P 6.574399668305334 7.166512041579498 7.393253876165859 0.5
A 25.783996859925445 0.07637611317920183 20.946363971558064 2.5
E 26.395761325013467 -2.135676586254967 21.937609195599308 0.5
E 25.172232394837422 2.2884288126133705 19.95511874751682 0.5
E 27.46036476532308 1.2008974498475387 22.421234274036692 0.5
E 24.107628954527808 -1.048145223489135 19.471493669079436 0.5
P 27.534863755212264 -0.22739126213727728 19.187901433803837 0.5
P 24.033129964638626 0.38014348849568097 22.70482650931229 0.5
A 16.45240207756853 8.383722931430936 10.281176916066302 2.5
E 17.48924745986396 6.119688434915563 10.502760877134053 0.5
E 15.415556695273096 10.64775742794631 10.059592954998552 0.5
E 15.388764296787208 8.116494303762769 12.527788482815355 0.5
E 17.51603985834985 8.650951559099104 8.03456534931725 0.5
P 18.463279081392653 9.409752491991656 11.355251874506518 0.5
P 14.441525073744405 7.357693370870217 9.207101957626087 0.5
A 15.549617928044622 37.7494476671978 39.82080879995434 2.5
E 16.640587051000107 39.99862825006184 39.852003004878426 0.5
E 14.458648805089137 35.50026708433376 39.78961459503026 0.5
E 15.7213229607609 37.63160948053846 42.31212000963901 0.5
E 15.377912895328343 37.86728585385714 37.329497590269675 0.5
P 13.306784061149132 38.83448262858289 40.02671017944077 0.5
P 17.79245179494011 36.66441270581271 39.614907420467915 0.5
A 22.635046875882665 35.76849698112337 26.627032151768294 2.5
E 22.8468012849001 38.21524562720477 27.094558764018032 0.5
E 22.42329246686523 33.32174833504197 26.159505539518555 0.5
E 20.15007666271263 36.00865398341865 26.49570182812804 0.5
E 25.1200170890527 35.52833997882809 26.758362475408546 0.5
P 22.808491708381602 36.22208895321788 24.174651428281003 0.5
P 22.461602043383728 35.31490500902886 29.079412875255585 0.5
A 33.96931101055237 19.075129081440586 30.421349817376004 2.5
E 32.62634334217933 19.91122724186012 32.35716429915068 0.5
E 35.3122786789254 18.23903092102105 28.48553533560133 0.5
E 34.87180911921788 17.22878829334726 31.844909741678062 0.5
E 33.066812901886856 20.92146986953391 28.997789893073946 0.5
P 32.06354738261719 17.611583537097403 29.731350227467896 0.5
P 35.87507463848755 20.53867462578377 31.111349407284113 0.5
A 6.604299641772206 10.143014583498104 29.095056381704442 2.5
E 6.816675683256588 8.510576535717748 27.21355633196619 0.5
E 6.391923600287824 11.77545263127846 30.976556431442695 0.5
E 5.469015247541283 11.76038487924169 27.56363786586215 0.5
E 7.739584036003129 8.525644287754519 30.626474897546732 0.5
P 4.387088384083457 9.158504884913098 29.698972677372073 0.5
P 8.821510899460955 11.12752428208311 28.49114008603681 0.5
70
Properties=species:S:1:pos:R:3:radius:R:1
A 10.908848452413777 15.380907888311896 39.6933091306634 2.5
E 11.18603171849202 14.722610785122109 42.08910009836891 0.5
E 10.631665186335534 16.039204991501684 37.29751816295789 0.5
E 8.452763798525886 15.672400376147005 40.05756220542497 0.5
E 13.364933106301667 15.089415400476787 39.32905605590183 0.5
P 11.284105177794892 17.775000002970142 40.3077237598745 0.5
P 10.533591727032661 12.98681577365365 39.078894501452304 0.5
A 10.796878252916692 22.7738480215387 15.700364338115973 2.5
E 10.531895195934224 20.29214288611466 15.55571441477381 0.5
E 11.06186130989916 25.25555315696274 15.845014261458136 0.5
E 12.150777457529902 22.75177740243526 13.598824466612024 0.5
E 9.442979048303481 22.795918640642142 17.801904209619924 0.5
P 8.71199434169749 23.074933571811474 14.354033558494189 0.5
P 12.881762164135893 22.472762471265927 17.046695117737755 0.5
A 36.478386113421585 8.670311743106982 31.865316537036893 2.5
E 36.65812217760663 6.597573665196028 30.479152114030537 0.5
E 36.29865004923654 10.743049821017937 33.251480960043246 0.5
E 38.07930582457976 7.700732150851973 33.522715551368414 0.5
E 34.87746640226341 9.639891335361991 30.20791752270537 0.5
P 38.390126426763274 9.677124672433914 30.60770900696894 0.5
P 34.5666458000799 7.663498813780049 33.12292406710485 0.5
A 8.810751865984923 5.589114735588751 7.362847975127313 2.5
E 8.082502140847922 6.496849349661684 5.150231829418668 0.5
E 9.539001591121924 4.681380121515819 9.575464120835957 0.5
E 6.638320243339234 6.305237362417872 8.371663730491596 0.5
E 10.983183488630612 4.872992108759631 6.354032219763029 0.5
P 7.810655279266554 3.3725439034798255 6.782657865355488 0.5
P 9.810848452703292 7.805685567697677 7.943038084899137 0.5
A 25.8512976796542 0.7600511137184507 20.862570029323415 2.5
E 24.031808535125574 -0.15732916074682668 22.31097352454408 0.5
E 27.670786824182823 1.6774313881837282 19.414166534102748 0.5
E 24.717723307009297 2.9882448475052588 20.849848928786937 0.5
E 26.9848720522991 -1.4681426200683572 20.875291129859892 0.5
P 27.137559081791476 1.4260587088239038 22.90020726117717 0.5
P 24.56503627751692 0.09404351861299742 18.82493279746966 0.5
A 15.868040284809974 8.435391511015192 9.92553122798109 2.5
E 13.94623788463332 8.836522919450948 8.377703999947162 0.5
E 17.789842684986628 8.034260102579436 11.473358456015017 0.5
E 15.200532438677753 10.433208699971711 11.27206743427611 0.5
E 16.535548130942196 6.437574322058674 8.578995021686069 0.5
P 14.415074762153374 6.987006178074469 11.354191830536859 0.5
P 17.321005807466573 9.883776843955914 8.49687062542532 0.5
A 16.00008189227387 36.990190297644915 39.33508334787683 2.5
E 18.24678497124116 36.39906302971804 38.411560837015344 0.5
E 13.753378813306577 37.58131756557179 40.25860585873832 0.5
E 15.313439259923548 34.59008212782287 39.200909324354434 0.5
E 16.68672452462419 39.39029846746696 39.46925737139923 0.5
P 16.85497789202683 36.615958649781625 41.65437278719647 0.5
P 15.145185892520907 37.364421945508205 37.01579390855719 0.5
A 22.857530852486466 36.18007904616654 26.39626088685794 2.5
E 21.223100125792275 37.613762026282345 27.630436446559802 0.5
E 24.491961579180657 34.746396066050735 25.16208532715608 0.5
E 23.75073741462525 35.327184153254535 28.569910430597243 0.5
E 21.964324290347683 37.032973939078545 24.22261134311864 0.5
P 21.18995229751781 34.318057721322994 26.35089185735802 0.5
P 24.525109407455123 38.042100371010086 26.44162991635786 0.5
A 33.74020941796499 19.57278504718841 30.635426250131456 2.5
E 34.55664112824985 19.75525944848623 32.99130026104825 0.5
E 32.92377770768013 19.390310645890594 28.279552239214663 0.5
E 32.68410558833297 17.371240998228206 31.17194139579401 0.5
E 34.79631324759701 21.774329096148616 30.0989111044689 0.5
P 31.626425142434787 20.74321526439905 31.277305633787257 0.5
P 35.85399369349519 18.40235482997777 29.993546866475654 0.5
A 7.23202167181821 9.830864882702137 29.050930716214587 2.5
E 4.790882714607685 9.432672322620641 28.687223035944555 0.5
E 9.673160629028736 10.229057442783633 29.41463839648462 0.5
E 7.241010117708306 11.486618359071429 27.177858471656453 0.5
E 7.2230332259281145 8.175111406332846 30.92400296077272 0.5
P 6.692800196511317 11.66114439976758 30.666268789182936 0.5
P 7.771243147125104 8.000585365636695 27.43559264324624 0.5
70
Properties=species:S:1:pos:R:3:radius:R:1
A 10.99897949948216 15.386539142048774 39.2259970731378 2.5
E 12.872489674369227 15.375509004196875 40.8812426623646 0.5
E 9.125469324595095 15.397569279900672 37.570751483910996 0.5
E 9.653387357423611 16.832338758439523 40.75865661017655 0.5
E 12.34457164154071 13.940739525658024 37.693337536099044 0.5
P 11.963003053046132 17.426034620176765 38.14844578300328 0.5
P 10.03495594591819 13.347043663920783 40.30354836327231 0.5
A 10.698626604911215 22.661132253374287 16.23343585887991 2.5
E 10.91257493289388 20.834598349803695 17.926952912842207 0.5
E 10.48467827692855 24.48766615694488 14.539918804917615 0.5
E 13.10548951665552 22.37512181686815 15.620892836488968 0.5
E 8.29176369316691 22.947142689880426 16.845978881270852 0.5
P 10.057348945060442 20.97828587615583 14.499425756931375 0.5
P 11.339904264761989 24.343978630592744 17.96744596082845 0.5
A 36.06743530595236 9.00373300693673 31.371983475188518 2.5
E 35.700038408722406 11.476308458120403 31.409268299301463 0.5
E 36.43483220318231 6.531157555753059 31.334698651075573 0.5
E 38.42396941549911 9.365232757891542 30.61961061509734 0.5
E 33.71090119640561 8.64223325598192 32.1243563352797 0.5
P 36.816946153404196 9.079155604763502 33.75579238558561 0.5
P 35.31792445850052 8.92831040910996 28.98817456479143 0.5
A 9.261909998921071 5.346408465266123 6.785066851450163 2.5
E 6.98057913903798 6.156816151989545 6.161553508334325 0.5
E 11.543240858804163 4.536000778542701 7.408580194566001 0.5
E 8.248650820986182 3.350049535480724 7.8976570104016215 0.5
E 10.275169176855961 7.3427673950515215 5.672476692498705 0.5
P 9.399151924274106 4.0784217126679305 4.63486354730432 0.5
P 9.124668073568037 6.614395217864315 8.935270155596006 0.5
A 26.40961040772418 0.9931195391397195 20.183629583198037 2.5
E 24.431272909506433 -0.2777082108318144 19.33440783768584 0.5
E 28.387947905941928 2.2639472891112535 21.032851328710233 0.5
E 26.179947696444597 2.6135238377563033 18.293776428036093 0.5
E 26.639273119003764 -0.6272847594768641 22.07348273835998 0.5
P 24.89850624778146 2.4106126569114186 21.582656916339392 0.5
P 27.920714567666902 -0.42437357863197966 18.784602250056682 0.5
A 15.089079191235708 8.699325732939036 10.13975503098863 2.5
E 14.11545084092997 8.743004397425022 12.441958325606942 0.5
E 16.062707541541446 8.65564706845305 7.837551736370317 0.5
E 12.85968356735646 8.056118326810163 9.2091211690801 0.5
E 17.318474815114957 9.342533139067909 11.070388892897158 0.5
P 14.513021045116114 11.114771117743139 9.850306235310416 0.5
P 15.665137337355302 6.2838803481349315 10.429203826666843 0.5
A 16.07672789339178 36.476746092652874 38.67793494422657 2.5
E 13.989854052056199 37.377870706788094 39.71857513187295 0.5
E 18.16360173472736 35.575621478517654 37.63729475658019 0.5
E 16.50390138651572 35.10405757460088 40.723234198413174 0.5
E 15.649554400267839 37.84943461070487 36.63263569003997 0.5
P 14.768110158101093 34.59161992652933 37.68605845964051 0.5
P 17.385345628682465 38.361872258776415 39.66981142881263 0.5
A 23.576739511929613 36.4806930168677 25.831977146106496 2.5
E 25.460066591822574 34.9807792647878 26.5052808268217 0.5
E 21.693412432036652 37.980606768947595 25.158673465391292 0.5
E 23.850308961966746 37.776126895691526 27.95259281651993 0.5
E 23.30317006189248 35.18525913804387 23.71136147569306 0.5
P 25.19792391419526 38.00454005706505 24.691954632322876 0.5
P 21.955555109663965 34.956845976670344 26.971999659890116 0.5
A 33.77921828293731 20.692062325949014 30.859044561921426 2.5
E 35.043480191686186 22.69700541137379 30.064157745893596 0.5
E 32.51495637418843 18.687119240524236 31.653931377949256 0.5
E 35.93572441283035 19.502621653433714 31.28882613237426 0.5
E 31.622712153044258 21.881502998464313 30.42926299146859 0.5
P 33.812731531380216 21.59507622992534 33.19001919743445 0.5
P 33.7457050344944 19.789048421972687 28.5280699264084 0.5
A 7.8826023314022144 9.368985936200222 29.388899124611648 2.5
E 7.9746560240725755 11.861040600098164 29.21229315129017 0.5
E 7.790548638731853 6.87693127230228 29.565505097933126 0.5
E 9.294983387340759 9.171300669401907 27.33558466060002 0.5
E 6.47022127546367 9.566671202998537 31.442213588623275 0.5
P 9.943356045579197 9.393153837183862 30.80407050719058 0.5
P 5.821848617225231 9.344818035216582 27.973727742032715 0.5
70
Properties=species:S:1:pos:R:3:radius:R:1
A 10.859507239994052 15.492661394296116 38.9006735608762 2.5
E 12.629317218645769 13.7604678392511 39.2431325034175 0.5
E 9.089697261342335 17.224854949341132 38.5582146183349 0.5
E 10.226888101516515 15.323300540314646 41.31337120599707 0.5
E 11.492126378471589 15.662022248277585 36.48797591575533 0.5
P 12.508011308869204 17.287326373895475 39.45889569041147 0.5
P 9.2110031711189 13.697996414696759 38.34245143134093 0.5
A 10.78348452717784 22.563323368882507 16.021024933672983 2.5
E 10.069729083563214 21.035724722210322 17.86682978289095 0.5
E 11.497239970792467 24.090922015554693 14.175220084455017 0.5
E 13.157003351105057 21.849611949552205 16.348170776350894 0.5
E 8.409965703250624 23.27703478821281 15.693879090995072 0.5
P 10.4564347462967 20.717501496489724 14.366945112073445 0.5
P 11.11053430805898 24.40914524127529 17.67510475527252 0.5
A 35.87890050244257 8.615122229663497 31.01740075676273 2.5
E 34.62798854501024 10.779649264070942 31.01092062778326 0.5
E 37.1298124598749 6.450595195256051 31.023880885742198 0.5
E 36.81137177864402 9.147251920354405 28.759672847703737 0.5
E 34.946429226241115 8.082992538972588 33.27512866582172 0.5
P 37.832286433028614 9.747226778547553 32.09100342841737 0.5
P 33.925514571856525 7.483017680779441 29.94379808510809 0.5
A 9.556430657555827 5.177082720804811 6.102434745004718 2.5
E 9.11967960724861 7.518820431565795 5.343809004567161 0.5
E 9.993181707863044 2.8353450100438264 6.861060485442275 0.5
E 7.23601106265958 4.528273413441958 5.435576899358544 0.5
E 11.876850252452074 5.825892028167663 6.769292590650892 0.5
P 10.377954499982852 4.5894510532798005 3.815561858365695 0.5
P 8.734906815128802 5.764714388329821 8.38930763164374 0.5
A 26.839305888965157 1.0227815197113241 19.268089914870934 2.5
E 26.959615147917948 -0.537080273529299 17.318126615677528 0.5
E 26.718996630012366 2.582643312951947 21.21805321406434 0.5
E 29.177372045186914 1.7787136439519267 18.807640924564346 0.5
E 24.5012397327434 0.26684939547072173 19.728538905177523 0.5
P 25.962395214298976 2.8242802872746235 17.772887634533166 0.5
P 27.71621656363134 -0.7787172478519755 20.763292195208702 0.5
A 14.433768646408172 8.827188193985148 10.331659653440827 2.5
E 15.79602571718181 8.990910718970019 8.241815016167193 0.5
E 13.071511575634535 8.663465669000276 12.421504290714461 0.5
E 15.317082910376035 11.042641559318708 11.081007568033689 0.5
E 13.550454382440309 6.611734828651587 9.582311738847965 0.5
P 12.532713259471826 9.973905823066666 9.182300225343802 0.5
P 16.334824033344518 7.680470564903629 11.481019081537852 0.5
A 15.965134568270711 35.86616583439415 38.355985627699276 2.5
E 15.131436021766863 33.50991579738961 38.30091751833208 0.5
E 16.79883311477456 38.222415871398695 38.411053737066474 0.5
E 13.613800005655786 36.70168042517079 38.203863495030674 0.5
E 18.316469130885636 35.03065124361751 38.50810776036788 0.5
P 15.803355372433705 35.865102015211725 40.850745407733996 0.5
P 16.12691376410772 35.86722965357658 35.86122584766456 0.5
A 24.149158320273415 36.75486966877874 25.739166189911646 2.5
E 23.98230589336048 37.64098664530625 28.070894512753764 0.5
E 24.31601074718635 35.86875269225123 23.40743786706953 0.5
E 26.606953953664277 36.414250066454606 26.04448391130768 0.5
E 21.691362686882552 37.09548927110287 25.433848468515613 0.5
P 23.72324648418621 34.4421277916071 26.587590681223944 0.5
P 24.57507015636062 39.06761154595038 24.89074169859935 0.5
A 33.77254826822065 21.24159513547395 30.994077902767543 2.5
E 32.49638100964882 23.082228407559835 29.88346262921838 0.5
E 35.048715526792485 19.400961863388066 32.10469317631671 0.5
E 35.88498159694569 22.075714116782365 29.949151610288652 0.5
E 31.66011493949561 20.407476154165536 32.039004195246434 0.5
P 34.17132459630686 22.71343571200133 32.975154064212795 0.5
P 33.373771940134446 19.76975455894657 29.013001741322288 0.5
A 8.67762297066588 8.720208864426361 29.196727505816625 2.5
E 10.58181657272655 8.761247959123365 27.577356480208216 0.5
E 6.773429368605209 8.679169769729357 30.816098531425034 0.5
E 7.058458936984579 8.843292361402519 27.29589655993864 0.5
E 10.29678700434718 8.597125367450204 31.09755845169461 0.5
P 8.62909918364874 6.223577885390624 29.076397972388854 0.5
P 8.726146757683019 11.216839843462099 29.317057039244396 0.5
70
Properties=species:S:1:pos:R:3:radius:R:1
A 10.789784443207019 16.057832978979633 38.39239020271405 2.5
E 9.013106231641613 16.21402459942743 36.64052870412133 0.5
E 12.566462654772424 15.901641358531839 40.144251701306764 0.5
E 9.549964941581061 14.180399153175422 39.48238553899536 0.5
E 12.029603944832976 17.935266804783843 37.302394866432735 0.5
P 12.037286802298015 14.414407773067012 36.98069212712056 0.5
P 9.542282084116023 17.701258184892254 39.80408827830753 0.5
A 10.660997498771385 22.835244839571715 15.50238552538626 2.5
E 8.956323585358518 21.299498492671493 16.495144311251636 0.5
E 12.365671412184252 24.370991186471937 14.509626739520883 0.5
E 12.287411215397952 20.941548588782485 15.365663427258756 0.5
E 9.034583782144818 24.728941090360944 15.639107623513762 0.5
P 9.825015877382956 22.28261687454456 13.212028116384047 0.5
P 11.496979120159814 23.38787280459887 17.79274293438847 0.5
A 35.880205145683085 8.783437699970897 30.35411357710431 2.5
E 34.9148197239107 10.83681962337699 31.403710482615033 0.5
E 36.84559056745547 6.730055776564804 29.30451667159359 0.5
E 36.27726106963521 7.810578237058625 32.622569232098655 0.5
E 35.48314922173096 9.756297162883168 28.08565792210997 0.5
P 33.608558698569645 7.740764624625427 30.304562822662618 0.5
P 38.151851592796525 9.826110775316366 30.403664331546004 0.5
A 9.532706217467876 5.353229917073598 5.576856236892428 2.5
E 9.381836977980674 6.018257091055543 7.982054218440175 0.5
E 9.683575456955078 4.6882027430916535 3.1716582553446804 0.5
E 7.208038324178469 6.191841343042258 5.199165805264331 0.5
E 11.857374110757283 4.5146184911049385 5.954546668520525 0.5
P 10.439986581239275 7.612537274229684 5.009077576308534 0.5
P 8.625425853696477 3.093922559917513 6.144634897476322 0.5
A 27.09723885135821 1.3556606592061513 17.83328416582782 2.5
E 25.112616362042502 2.07345183479565 16.493116488575822 0.5
E 29.081861340673917 0.637869483616653 19.173451843079818 0.5
E 28.28367622917421 3.4649049396070404 17.2060243200541 0.5
E 25.91080147354221 -0.7535836211947378 18.460544011601538 0.5
P 26.146639080988862 2.489620267765831 19.84835133163936 0.5
P 28.047838621727557 0.22170105064647183 15.81821700001628 0.5
A 14.023110934796268 9.066813140813673 10.38316234461153 2.5
E 14.032152818566363 9.687926907053301 12.804760150550212 0.5
E 14.014069051026173 8.445699374574046 7.9615645386728495 0.5
E 12.729441901267704 11.140152204751155 9.85620356288222 0.5
E 15.316779968324832 6.993474076876192 10.910121126340842 0.5
P 16.16234880750437 10.318005698072545 10.05425733000572 0.5
P 11.883873062088167 7.815620583554803 10.712067359217341 0.5
A 15.289173974526463 35.61620108844042 38.31558832319269 2.5
E 14.974222391095157 37.81946717970999 39.454194502322146 0.5
E 15.604125557957769 33.41293499717085 37.17698214406324 0.5
E 17.462699624412863 35.30866072881323 39.511918200978165 0.5
E 13.11564832464006 35.92374144806761 37.11925844540722 0.5
P 14.094773811525833 34.47557079853136 40.1923863390596 0.5
P 16.483574137527093 36.75683137834948 36.43879030732578 0.5
A 24.71809771252274 36.41732301416621 26.140087156813234 2.5
E 26.78401677813455 35.00959759481034 26.123129620378503 0.5
E 22.652178646910933 37.82504843352208 26.157044693247965 0.5
E 25.575814604772518 37.65201094896876 28.13755240967831 0.5
E 23.860380820272965 35.182635079363656 24.142621903948157 0.5
P 25.834475850561986 38.073781539862914 24.636809070245192 0.5
P 23.601719574483496 34.7608644884695 27.643365243381275 0.5
A 33.71678460609412 21.06413369108235 31.01177608199485 2.5
E 31.501591506759198 21.904529815585796 30.213870143566435 0.5
E 35.93197770542905 20.223737566578905 31.809682020423264 0.5
E 34.68324754910002 21.454102045792034 28.739360173292784 0.5
E 32.75032166308823 20.674165336372667 33.28419199069691 0.5
P 34.356213188858554 23.386128315590646 31.682202850030897 0.5
P 33.07735602332969 18.742139066574055 30.3413493139588 0.5
A 8.983843012081604 8.052749711520768 28.655436783000358 2.5
E 8.221628175891878 6.032704562463623 27.395101058177158 0.5
E 9.74605784827133 10.072794860577913 29.915772507823558 0.5
E 7.951850631317273 9.525615323573682 26.91887160573835 0.5
E 10.015835392845934 6.579884099467854 30.392001960262366 0.5
P 6.838144927648639 8.06194126227953 29.93836127253901 0.5
P 11.129541096514568 8.043558160762005 27.372512293461707 0.5
70
Properties=species:S:1:pos:R:3:radius:R:1
A 10.497140785823898 16.48339181694756 38.069658927914894 2.5
E 12.339787497443687 18.16050466813102 38.27446513034248 0.5
E 8.65449407420411 14.806278965764099 37.86485272548731 0.5
E 8.824734999139963 18.250778818126452 38.64359452772615 0.5
E 12.169546572507834 14.716004815768667 37.49572332810364 0.5
P 10.25690760571838 17.043423666452487 35.64506569466582 0.5
P 10.737373965929416 15.923359967442634 40.49425216116397 0.5
A 10.445631490614046 23.32472134843822 15.461547486442202 2.5
E 9.383788765069635 21.088546396529907 15.112245882284748 0.5
E 11.507474216158457 25.560896300346535 15.810849090599655 0.5
E 12.359846341363937 22.231547850184562 16.640849486730993 0.5
E 8.531416639864155 24.41789484669188 14.282245486153412 0.5
P 11.65322063075141 23.091283375575166 13.285028434963763 0.5
P 9.238042350476682 23.558159321301275 17.63806653792064 0.5
A 35.788800125102604 9.151309953085368 30.01774242669622 2.5
E 36.7175228126561 11.470931084588674 29.93508665916671 0.5
E 34.86007743754911 6.831688821582063 30.10039819422573 0.5
E 33.663592589628614 9.965319371331393 28.982908334597155 0.5
E 37.914007660576594 8.337300534839343 31.052576518795284 0.5
P 36.72205630685933 8.696616129409207 27.743476297606932 0.5
P 34.85554394334588 9.60600377676153 32.29200855578551 0.5
A 9.810489713416478 5.468094820612585 4.675955273519796 2.5
E 8.37609402809964 4.238949656192096 6.313548380102006 0.5
E 11.244885398733317 6.6972399850330735 3.038362166937587 0.5
E 7.763398538156129 6.371823446437119 3.561194182058535 0.5
E 11.857580888676829 4.56436619478805 5.790716364981058 0.5
P 9.854384338543502 7.448619179373777 6.200945937831525 0.5
P 9.766595088289455 3.4875704618513925 3.150964609208067 0.5
A 27.25943226834155 1.5208297881225437 16.849269031832 2.5
E 26.35326180312814 -0.7597622510018973 17.32650591123263 0.5
E 28.165602733554955 3.8014218272469846 16.372032152431373 0.5
E 26.305595369787984 2.351112873053408 19.00584622030412 0.5
E 28.213269166895113 0.6905467031916795 14.692691843359881 0.5
P 29.385238058844422 0.9212216244332723 18.02034537054974 0.5
P 25.133626477838675 2.120437951811815 15.678192693114262 0.5
A 13.74700243812401 9.10577110458251 10.97118630260458 2.5
E 13.139586660091053 7.352652064591636 9.29559097430498 0.5
E 14.354418216156967 10.858890144573385 12.646781630904181 0.5
E 16.015897238260113 9.304840180416928 9.940415770932695 0.5
E 11.478107637987907 8.906702028748093 12.001956834276466 0.5
P 12.890753374759075 10.876913429374412 9.428496312094898 0.5
P 14.603251501488945 7.33462877979061 12.513876293114263 0.5
A 14.42605548566591 35.74432402027245 38.41739707676605 2.5
E 15.966537873128798 33.84821284501798 38.94812904771509 0.5
E 12.88557309820302 37.64043519552692 37.88666510581701 0.5
E 12.46609338894424 34.20321009828259 38.600472085598845 0.5
E 16.38601758238758 37.28543794226231 38.234322067933256 0.5
P 14.237740342019036 36.273219369580644 40.85354303219424 0.5
P 14.614370629312782 35.21542867096426 35.98125112133786 0.5
A 25.294634194859185 35.95474232689496 26.337021616758566 2.5
E 27.496831727186837 35.898263841693996 25.155016452082663 0.5
E 23.092436662531533 36.01122081209592 27.51902678143447 0.5
E 25.965266434871314 38.071733677927256 27.485324720608702 0.5
E 24.624001954847056 33.83775097586266 25.18871851290843 0.5
P 24.31965807860432 37.283334740077024 24.457057847860682 0.5
P 26.26961031111405 34.626149913712894 28.21698538565645 0.5
A 33.912510627843524 20.934627005527442 31.681922030814896 2.5
E 31.66782351308559 21.600023778478327 30.80520834243822 0.5
E 36.157197742601454 20.269230232576557 32.55863571919157 0.5
E 34.385880484798264 19.72047931670859 29.54843512711399 0.5
E 33.439140770888784 22.148774694346294 33.8154089345158 0.5
P 34.90614070758504 23.016235163727053 30.717760871905 0.5
P 32.91888054810201 18.85301884732783 32.64608318972479 0.5
A 8.715912033397318 7.8207380476446815 28.303147566668805 2.5
E 6.219993088281088 7.67798606705092 28.30638661735819 0.5
E 11.211830978513548 7.963490028238443 28.29990851597942 0.5
E 8.672020015652524 8.533799705563053 25.907397879663105 0.5
E 8.759804051142112 7.1076763897263096 30.698897253674506 0.5
P 8.580036685408432 10.21263372765378 29.01755147606855 0.5
P 8.851787381386204 5.428842367635584 27.58874365726906 0.5
70
Properties=species:S:1:pos:R:3:radius:R:1
A 9.956744345055348 16.47604213272752 37.912985469736704 2.5
E 12.367094625659995 17.047462802114858 38.250164863215474 0.5
E 7.546394064450702 15.904621463340186 37.57580607625793 0.5
E 9.29386540451057 18.49577955101174 39.22875606956234 0.5
E 10.619623285600127 14.456304714443302 36.59721486991107 0.5
P 9.928406473363713 17.834032994176965 35.81416251740164 0.5
P 9.985082216746983 15.118051271278075 40.011808422071766 0.5
A 10.444050898485235 24.00429879280714 15.643546843630261 2.5
E 12.304664357236648 23.562393473572328 17.253775785720716 0.5
E 8.583437439733823 24.446204112041954 14.033317901539807 0.5
E 11.405446571386808 26.25896733885459 15.15142073419176 0.5
E 9.482655225583663 21.749630246759693 16.135672953068763 0.5
P 11.809274659353724 23.01880935283484 13.7955818422128 0.5
P 9.078827137616747 24.989788232779443 17.491511845047725 0.5
A 35.857417540421636 9.019321160841018 30.23972202000861 2.5
E 34.47350017187304 10.973658592792741 29.5218516145028 0.5
E 37.24133490897023 7.0649837288892945 30.95759242551442 0.5
E 37.10758429462689 10.488646060259118 31.829743223209718 0.5
E 34.60725078621638 7.549996261422918 28.649700816807503 0.5
P 34.19252841387037 8.498121062969249 32.03039079291695 0.5
P 37.5223066669729 9.540521258712788 28.449053247100277 0.5
A 9.667674399092467 5.468022567463577 4.246133916222343 2.5
E 7.584443866025851 4.13381146283287 4.6067324109200785 0.5
E 11.750904932159084 6.8022336720942835 3.8855354215246076 0.5
E 8.294052182865881 7.394727407449861 3.439306507998398 0.5
E 11.041296615319053 3.541317727477293 5.052961324446287 0.5
P 9.514989910073696 6.338476005536354 6.584722862351939 0.5
P 9.820358888111238 4.5975691293908 1.9075449700927463 0.5
A 27.340006007421906 1.9414284960143189 16.849218322257858 2.5
E 29.404422800838162 0.9144663597409386 15.883023686729084 0.5
E 25.27558921400565 2.968390632287699 17.815412957786634 0.5
E 27.211639058933724 0.0985843728660396 18.53369078101654 0.5
E 27.468372955910088 3.784272619162598 15.16474586349918 0.5
P 28.74418022367842 3.2827988059740596 18.423708862706334 0.5
P 25.93583179116539 0.600058186054578 15.274727781809382 0.5
A 13.56609873282201 8.49638197932453 11.6458919648252 2.5
E 14.710332550865893 10.718995847138382 11.619123247117985 0.5
E 12.421864914778126 6.2737681115106785 11.672660682532415 0.5
E 11.754960043048069 9.446101256981983 13.083880121956948 0.5
E 15.37723742259595 7.546662701667078 10.207903807693452 0.5
P 12.277492658007029 9.135147106933086 9.601026811397578 0.5
P 14.85470480763699 7.8576168517159735 13.690757118252822 0.5
A 13.803272493339177 35.85259593860207 38.01595994486079 2.5
E 11.451377509496036 35.759361995030694 37.17340584171063 0.5
E 16.155167477182317 35.94582988217345 38.858514048010946 0.5
E 13.285693657601634 37.978427067408276 39.22548636482469 0.5
E 14.32085132907672 33.72676480979587 36.80643352489689 0.5
P 13.131928964461745 34.54028902192433 40.03515493858223 0.5
P 14.47461602221661 37.16490285527981 35.99676495113935 0.5
A 25.59767824057558 34.82911519062012 26.76859350297159 2.5
E 24.892341011817265 32.89545012013319 25.349636566025552 0.5
E 26.303015469333893 36.76278026110705 28.18755043991763 0.5
E 27.816853136832997 34.864016022220866 25.61792208515701 0.5
E 23.378503344318162 34.79421435901938 27.919264920786173 0.5
P 24.68786387843933 36.413325191577485 25.061983852431002 0.5
P 26.507492602711828 33.24490518966276 28.47520315351218 0.5
A 34.241968242528166 20.654674096954867 32.13419983413149 2.5
E 31.82547311558491 20.56948548088211 31.499145347372973 0.5
E 36.65846336947143 20.739862713027623 32.76925432089001 0.5
E 34.730192026336276 18.805198613216774 30.52451726543142 0.5
E 33.75374445872006 22.50414958069296 33.74388240283157 0.5
P 34.65692467202963 22.334609612010247 30.329863993199424 0.5
P 33.8270118130267 18.974738581899487 33.93853567506356 0.5
A 8.390247997237337 7.8475890960636505 28.18873887827401 2.5
E 5.991234857849942 7.34876609442514 27.692844161538474 0.5
E 10.78926113662473 8.34641209770216 28.684633595009544 0.5
E 8.921137732124118 7.719663630958309 25.749109569388608 0.5
E 7.859358262350556 7.975514561168992 30.62836818715941 0.5
P 7.928845736252726 10.293976368843078 27.960052925175965 0.5
P 8.851650258221948 5.401201823284223 28.417424831372053 0.5
70
Properties=species:S:1:pos:R:3:radius:R:1
A 9.662769504449566 16.408871735311124 38.242507839249726 2.5
E 9.965480572692545 18.887728431861333 38.12573675065311 0.5
E 9.360058436206586 13.930015038760914 38.35927892784634 0.5
E 7.39730574524933 16.636894642862767 37.21019029634798 0.5
E 11.928233263649801 16.18084882775948 39.27482538215147 0.5
P 10.675705812868905 16.178057889104835 35.96859381196419 0.5
P 8.649833196030226 16.639685581517412 40.51642186653526 0.5
A 10.818932199427904 24.134216639321302 15.608261352358499 2.5
E 8.885789380955597 25.304015817287443 14.538434858659912 0.5
E 12.75207501790021 22.96441746135516 16.678087846057085 0.5
E 10.509345522047413 22.2009324333813 14.053729825417932 0.5
E 11.128518876808394 26.067500845261304 17.162792879299065 0.5
P 12.373639545708281 25.203787610455713 13.968473864563467 0.5
P 9.264224853147526 23.06464566818689 17.24804884015353 0.5
A 35.722817243772795 8.736976337837318 30.600397599629115 2.5
E 36.120461039446525 11.154113755724348 30.10107193955157 0.5
E 35.325173448099065 6.319838919950287 31.09972325970666 0.5
E 37.98939150245734 8.179162054218873 29.705141013582896 0.5
E 33.45624298508825 9.294790621455762 31.495654185675335 0.5
P 36.699812915017084 9.047282522179378 32.880570735671256 0.5
P 34.745821572528506 8.426670153495257 28.320224463586975 0.5
A 9.770285499491676 5.077462215076907 4.099143960391934 2.5
E 9.875786097451487 5.325977272596396 6.584523184980334 0.5
E 9.664784901531865 4.828947157557418 1.613764735803533 0.5
E 8.546859109618751 7.251366124432828 3.9337061731455565 0.5
E 10.9937118893646 2.903558305720986 4.264581747638311 0.5
P 11.947921257003031 6.286752113766449 3.885788743594184 0.5
P 7.5926497419803205 3.868172316387365 4.312499177189683 0.5
A 26.882797555588763 2.75164816054628 17.399487087782326 2.5
E 26.907480620100923 4.929027428049004 18.627660638946164 0.5
E 26.858114491076602 0.5742688930435564 16.171313536618488 0.5
E 28.676616604462644 1.8807641894786218 18.9073910399084 0.5
E 25.08897850671488 3.6225321316139385 15.891583135656251 0.5
P 25.141647370732127 1.8852875921975527 18.97041528454594 0.5
P 28.6239477404454 3.6180087288950076 15.828558891018712 0.5
A 13.68841795995642 7.867907171480291 11.935433718145955 2.5
E 12.55962155893976 6.046020435078249 10.648364409687591 0.5
E 14.817214360973079 9.689793907882333 13.222503026604318 0.5
E 15.647984934036694 6.368796718935275 12.338875318833697 0.5
E 11.728850985876145 9.367017624025307 11.531992117458213 0.5
P 14.754211541822556 8.694585204812451 9.830513893055137 0.5
P 12.622624378090283 7.04122913814813 14.040353543236773 0.5
A 13.728436025649076 36.29883048002422 37.6498431404848 2.5
E 14.921376441074099 38.445607396685354 38.11700696114298 0.5
E 12.535495610224054 34.15205356336309 37.18267931982662 0.5
E 15.857049992354451 35.037847343857734 38.008903178704024 0.5
E 11.599822058943701 37.55981361619071 37.29078310226557 0.5
P 13.18447302508025 36.07240079912947 40.07941797028887 0.5
P 14.272399026217903 36.525260160918975 35.22026831068072 0.5
A 25.703426003500855 34.07886190969859 27.21496525186181 2.5
E 24.22707800756499 33.336226701141065 29.090835594371637 0.5
E 27.17977399943672 34.82149711825611 25.33909490935198 0.5
E 23.812210309331718 33.77873463258453 25.60772326147533 0.5
E 27.594641697669992 34.378989186812646 28.82220724224829 0.5
P 25.00078826396109 36.44707147908722 27.59952167481119 0.5
P 26.40606374304062 31.71065234030996 26.83040882891243 0.5
A 34.90857656906591 20.538457322341102 32.346593491130974 2.5
E 32.553606743603275 19.714491174633643 32.50532883248108 0.5
E 37.26354639452854 21.36242347004856 32.18785814978087 0.5
E 35.616906023103404 18.33288590009817 31.40652749029427 0.5
E 34.20024711502841 22.744028744584035 33.286659491967676 0.5
P 34.45870269151316 21.379013381636558 30.035516035596814 0.5
P 35.358450446618654 19.697901263045647 34.657670946665135 0.5
A 8.178802294274991 7.4359889643392165 28.43643762100113 2.5
E 8.193870037036518 5.368547969808361 27.030926789571954 0.5
E 8.163734551513464 9.503429958870072 29.841948452430305 0.5
E 10.202525467072686 8.271286744683938 27.22944874862649 0.5
E 6.155079121477296 6.6006911839944955 29.64342649337577 0.5
P 6.711042953302126 8.566460260873473 26.757831900558582 0.5
P 9.646561635247856 6.30551766780496 30.115043341443677 0.5
70
Properties=species:S:1:pos:R:3:radius:R:1
A 9.552360883790879 16.492611717278365 38.107440421804505 2.5
E 7.092554275848652 16.055767442485145 38.015144532920026 0.5
E 12.012167491733106 16.929455992071585 38.199736310688984 0.5
E 9.356782661000702 17.08225511543856 40.52902457722367 0.5
E 9.747939106581056 15.90296831911817 35.685856266385336 0.5
P 9.953734288857564 14.102739808035672 38.7217788034141 0.5
P 9.150987478724193 18.882483626521058 37.49310204019491 0.5
A 11.492572774184714 24.160835823691926 15.529417137501643 2.5
E 10.799627812330545 21.81712977624344 15.003233478505125 0.5
E 12.185517736038882 26.50454187114041 16.055600796498158 0.5
E 13.099398756400626 24.115625605230292 13.614719694294715 0.5
E 9.885746791968801 24.20604604215356 17.444114580708572 0.5
P 9.707093134783182 25.02974203226722 14.01051475157208 0.5
P 13.278052413586245 23.291929615116633 17.048319523431207 0.5
A 36.067802800614416 8.988073201993906 31.425170122343452 2.5
E 34.87685331668012 10.84791221980746 30.253573709522772 0.5
E 37.25875228454871 7.128234184180353 32.596766535164136 0.5
E 37.795749252339064 8.956609709648196 29.61873409839437 0.5
E 34.33985634888977 9.019536694339616 33.231606146292535 0.5
P 37.4264198867311 10.658405167941716 32.69566244299875 0.5
P 34.709185714497735 7.317741236046096 30.154677801688152 0.5
A 9.688801340814237 4.771454433349275 3.8134533845711447 2.5
E 10.16864610336091 5.790861252697834 1.5817368388330024 0.5
E 9.208956578267564 3.752047614000716 6.045169930309287 0.5
E 8.146395417255262 6.665247655481782 4.346868043888232 0.5
E 11.231207264373213 2.877661211216768 3.280038725254057 0.5
P 7.780730857098838 3.496951797624329 2.82102703430456 0.5
P 11.596871824529636 6.0459570690742215 4.805879734837729 0.5
A 26.27413526588929 3.0715408660745123 17.40931878783224 2.5
E 25.579896492286327 3.5734124143656976 19.757968926581032 0.5
E 26.96837403949225 2.569669317783327 15.06066864908345 0.5
E 28.6427354939296 2.810285821126025 18.165280930547738 0.5
E 23.905535037848978 3.3327959110229997 16.653356645116745 0.5
P 25.87693823045688 0.6364082720444815 17.812262660522883 0.5
P 26.671332301321698 5.506673460104543 17.0063749151416 0.5
A 13.742315203661574 7.826393361419446 12.365457734292889 2.5
E 14.462077121122928 9.855299149018713 11.094440784280053 0.5
E 13.022553286200221 5.79748757382018 13.636474684305725 0.5
E 14.043474101732434 9.066337265204112 14.515304806431127 0.5
E 13.441156305590715 6.586449457634779 10.215610662154651 0.5
P 11.367184449305833 8.598455807413819 12.252881186113068 0.5
P 16.117445958017317 7.054330915425073 12.47803428247271 0.5
A 13.690580453758658 36.968101521128496 37.597639749763104 2.5
E 15.419775930926093 36.478074672251076 35.85989503631456 0.5
E 11.961384976591223 37.458128370005916 39.335384463211646 0.5
E 11.970568319599915 35.78932608965668 36.21849264357735 0.5
E 15.410592587917401 38.14687695260031 38.97678685594886 0.5
P 14.239617119279078 34.81859874850104 38.75011385809548 0.5
P 13.141543788238238 39.11760429375595 36.44516564143073 0.5
A 25.86538393531038 33.49628095237773 27.82360052145407 2.5
E 27.635281022252276 33.85640318955195 29.5521190420168 0.5
E 24.095486848368484 33.136158715203514 26.09508200089134 0.5
E 24.839054333108553 31.714623786437567 29.245692392853186 0.5
E 26.891713537512206 35.27793811831789 26.40150865005495 0.5
P 24.428682209383954 35.21267534684185 28.93709880765541 0.5
P 27.302085661236806 31.779886557913613 26.710102235252727 0.5
A 35.17125047211782 20.261028792745236 32.60090981936414 2.5
E 34.49809814810465 19.198678312380775 34.76152950027651 0.5
E 35.844402796130986 21.323379273109698 30.440290138451772 0.5
E 37.50754553966785 19.430610112794238 32.920487937092226 0.5
E 32.834955404567786 21.091447472696235 32.281331701636056 0.5
P 34.58936448155106 18.15584085033757 31.384524838725074 0.5
P 35.75313646268458 22.366216735152904 33.817294800003204 0.5
A 7.9055915740840454 7.140766930265008 28.410114360200918 2.5
E 6.038978401772322 6.1921993280959855 27.044107490133634 0.5
E 9.772204746395769 8.08933453243403 29.776121230268203 0.5
E 9.427024817865076 6.99597259481396 26.431661559363214 0.5
E 6.3841583303030145 7.285561265716057 30.388567161038623 0.5
P 7.234029105155325 9.449284659142121 27.724731441104037 0.5
P 8.577154043012767 4.832249201387896 29.0954972792978 0.5
70
Properties=species:S:1:pos:R:3:radius:R:1
A 9.159648373733637 16.66396747388566 37.0866811523939 2.5
E 10.432566732149933 17.642936371510434 39.002744499543724 0.5
E 7.886730015317339 15.684998576260883 35.17061780524408 0.5
E 10.629546394542729 17.89411994600152 35.48165009233007 0.5
E 7.689750352924544 15.433815001769798 38.69171221245773 0.5
P 10.730978594033989 14.7201709843242 37.03592146425184 0.5
P 7.588318153433284 18.607763963447116 37.13744084053596 0.5
A 11.362015260144549 23.867911444191012 15.460845396444036 2.5
E 9.80968721927483 24.11209514458995 13.516455524533177 0.5
E 12.914343301014268 23.623727743792074 17.405235268354893 0.5
E 12.717968927697967 25.79258992477455 14.620011050197673 0.5
E 10.00606159259113 21.943232963607475 16.3016797426904 0.5
P 9.947212339247622 25.44461276874129 16.78837906011641 0.5
P 12.776818181041476 22.291210119640734 14.133311732771663 0.5
A 36.62342409135956 9.450345361104691 31.724859519103898 2.5
E 38.17455958345403 11.027574359455134 30.560244830922954 0.5
E 35.07228859926509 7.873116362754249 32.88947420728484 0.5
E 36.91253558101349 7.797556683849242 29.87156403945535 0.5
E 36.334312601705626 11.10313403836014 33.578154998752446 0.5
P 38.562597428561375 8.435141797725349 32.93273720048846 0.5
P 34.684250754157745 10.465548924484034 30.51698183771934 0.5
A 9.567670315280578 4.94746177802022 3.3379094449388944 2.5
E 7.323335745850789 3.846469393197064 3.3100148393128253 0.5
E 11.812004884710367 6.048454162843377 3.3658040505649636 0.5
E 8.810415766078904 6.4441313104104845 5.191701736034984 0.5
E 10.324924864482252 3.4507922456299562 1.4841171538428042 0.5
P 10.367375190953464 3.2748004018369414 5.015012909978809 0.5
P 8.767965439607693 6.620123154203499 1.66080597989898 0.5
A 25.28766094674212 3.3645544435237897 17.42119963507482 2.5
E 26.333707451484624 4.515437826916623 19.378558607708342 0.5
E 24.241614441999612 2.2136710601309573 15.463840662441301 0.5
E 27.321837690715643 1.9320034997148325 17.17640836139042 0.5
E 23.253484202768593 4.797105387332747 17.665990908759223 0.5
P 24.278744853007883 1.669483580336935 18.95704568353857 0.5
P 26.296577040476354 5.059625306710645 15.885353586611071 0.5
A 14.010644215502252 7.7348809622767245 12.702008187335528 2.5
E 11.714121711919606 8.650034970506647 12.329882493838413 0.5
E 16.307166719084897 6.819726954046801 13.074133880832642 0.5
E 13.188520440016955 6.486707346199296 14.706047888018002 0.5
E 14.832767990987549 8.983054578354153 10.697968486653053 0.5
P 13.462833218604779 5.771578701963657 11.25447672089713 0.5
P 14.558455212399725 9.698183222589792 14.149539653773925 0.5
A 13.442808177014665 37.57159171613679 37.27436800564356 2.5
E 13.2499914609026 39.91489814130781 38.123918893898804 0.5
E 13.635624893126732 35.228285290965765 36.424817117388315 0.5
E 11.010717403885518 37.20817790415488 37.72477323709205 0.5
E 15.874898950143812 37.935005528118694 36.82396277419507 0.5
P 12.897137777191524 38.36332740372975 34.96668552840717 0.5
P 13.988478576837807 36.779856028543826 39.58205048287995 0.5
A 26.146455563889912 33.00957504510458 27.741733462616963 2.5
E 28.03300830337448 34.569044583022794 28.250627873521115 0.5
E 24.259902824405344 31.45010550718637 27.232839051712812 0.5
E 27.234157049199315 31.239821034933392 29.132731745268586 0.5
E 25.05875407858051 34.779329055275774 26.35073517996534 0.5
P 24.918520614472783 33.837841610763974 29.75572210613306 0.5
P 27.37439051330704 32.18130847944519 25.727744819100867 0.5
A 35.62508014069756 20.189244284740653 32.96328249618756 2.5
E 33.83504821934474 21.037746341245988 34.48834970147557 0.5
E 37.41511206205038 19.340742228235317 31.43821529089955 0.5
E 36.37446631902157 22.535925130996436 32.53724334123344 0.5
E 34.87569396237355 17.84256343848487 33.38932165114168 0.5
P 37.201216580310486 20.03714804572306 34.89787823116731 0.5
P 34.04894370108464 20.341340523758245 31.028686761207812 0.5
A 7.297280512388876 6.977592902287104 28.164655406884304 2.5
E 4.898534387095212 6.74767733877 28.83035493373134 0.5
E 9.69602663768254 7.207508465804208 27.49895588003727 0.5
E 6.865428108052698 5.591093842855728 26.129680257387854 0.5
E 7.729132916725054 8.36409196171848 30.199630556380754 0.5
P 6.740934821958173 9.045141980749728 26.874027543830564 0.5
P 7.853626202819579 4.910043823824481 29.455283269938043 0.5
70
Properties=species:S:1:pos:R:3:radius:R:1
A 8.744808060906434 16.852881210320778 36.10647834624403 2.5
E 8.609395294450657 16.782962436607725 33.61112772002647 0.5
E 8.880220827362212 16.92279998403383 38.6018289724616 0.5
E 6.391159934650489 16.023693304342682 36.25743501006744 0.5
E 11.09845618716238 17.682069116298873 35.955521682420624 0.5
P 9.576675767007485 14.495433696236258 36.1273909712359 0.5
P 7.912940354805385 19.210328724405297 36.085565721252166 0.5
A 11.031218402366182 23.434127126663824 15.086910824624342 2.5
E 8.960003853000552 24.565995043899555 15.910892200887877 0.5
E 13.102432951731812 22.302259209428094 14.262929448360806 0.5
E 12.379905993390578 25.44201593345911 15.718911078867636 0.5
E 9.682530811341787 21.42623831986854 14.454910570381047 0.5
P 11.406867270743973 22.46600649498654 17.361032714543136 0.5
P 10.655569533988391 24.402247758341108 12.812788934705548 0.5
A 36.97973519662453 10.05246814444685 31.681426102862915 2.5
E 39.21310049184823 10.756393245907434 30.805886892077027 0.5
E 34.74636990140083 9.348543042986266 32.5569653136488 0.5
E 36.41173705267413 9.079001553416653 29.449892794884644 0.5
E 37.547733340574936 11.025934735477048 33.91295941084118 0.5
P 37.94899138905188 7.860014667704128 32.39113744260568 0.5
P 36.01047900419718 12.244921621189572 30.971714763120147 0.5
A 9.15250169474396 5.572864380426849 3.4452825273815346 2.5
E 10.784825929260869 4.868516509718071 5.202954758042285 0.5
E 7.520177460227049 6.277212251135627 1.6876102967207844 0.5
E 10.395098109259818 7.722359284039026 3.15266364559713 0.5
E 7.9099052802281005 3.4233694768146723 3.7379014091659393 0.5
P 10.581302501028818 4.508173938855951 1.6917254226408731 0.5
P 7.723700888459102 6.637554821997747 5.198839632122196 0.5
A 24.637351909636696 3.891053675997997 17.303814986525953 2.5
E 25.678544632786977 5.7088255363633955 15.93940186106669 0.5
E 23.596159186486414 2.0732818156325985 18.66822811198522 0.5
E 26.908146521071664 2.9950461604917646 17.842946106789995 0.5
E 22.366557298201727 4.787061191504229 16.76468386626191 0.5
P 24.734354723718113 5.354910224920385 19.328096206673052 0.5
P 24.54034909555528 2.427197127075609 15.279533766378856 0.5
A 14.530306532946078 7.66544000167562 12.887968460942325 2.5
E 12.10997361731573 7.147025457770283 13.239016802606448 0.5
E 16.950639448576425 8.183854545580957 12.536920119278202 0.5
E 14.856473150548057 7.8179049945142465 15.3619065692066 0.5
E 14.204139915344099 7.512975008836993 10.41403035267805 0.5
P 15.064725764523493 5.224538367724028 12.967939069881275 0.5
P 13.995887301368663 10.106341635627212 12.807997852003375 0.5
A 13.229467587403937 37.828311105720125 37.584524579397154 2.5
E 15.102731047220477 37.693915341350085 39.23462208822224 0.5
E 11.356204127587397 37.962706870090166 35.93442707057207 0.5
E 11.892716742321184 36.23548737601176 38.97233211080908 0.5
E 14.56621843248669 39.42113483542849 36.19671704798523 0.5
P 12.252747981640901 39.75051045661808 38.849897436353075 0.5
P 14.206187193166972 35.90611175482217 36.319151722441234 0.5
A 26.32572027368279 33.29650530633641 27.105102136022964 2.5
E 27.872167772624604 34.03427348795313 25.284608180193512 0.5
E 24.779272774740978 32.558737124719684 28.925596091852416 0.5
E 26.659334348473678 30.914552170923336 26.42319238407754 0.5
E 25.992106198891904 35.67845844174948 27.787011887968387 0.5
P 28.261489315205832 33.117627216870986 28.676980263293387 0.5
P 24.38995123215975 33.47538339580183 25.53322400875254 0.5
A 35.54157970871284 20.503248922152878 33.290583000406315 2.5
E 34.80435782023529 18.328044692021187 32.303166956194154 0.5
E 36.27880159719039 22.67845315228457 34.277999044618475 0.5
E 33.929577375802424 21.718862684325845 31.816224950301848 0.5
E 37.15358204162325 19.28763515997991 34.764941050510785 0.5
P 33.77864114885269 20.301333745819655 35.05162754718114 0.5
P 37.304518268572984 20.7051640984861 31.52953845363149 0.5
A 7.256273647114419 7.3418470110350995 27.866045142183903 2.5
E 5.0199624628757595 7.102775192138827 28.957721354557293 0.5
E 9.492584831353078 7.580918829931372 26.774368929810514 0.5
E 6.217005682719659 8.684649767642975 26.031160171666063 0.5
E 8.29554161150918 5.999044254427223 29.700930112701744 0.5
P 7.667168263086754 9.437014169583342 29.166598944342443 0.5
P 6.845379031142084 5.246679852486857 26.565491340025364 0.5
70
Properties=species:S:1:pos:R:3:radius:R:1
A 8.251478681187388 16.695859274563713 35.64260955915114 2.5
E 5.959390475275285 15.702904744774603 35.74445727925888 0.5
E 10.543566887099491 17.688813804352822 35.5407618390434 0.5
E 8.625467226103337 16.07805603652207 38.036027977927546 0.5
E 7.877490136271439 17.313662512605354 33.249191140374734 0.5
P 9.176932204921297 14.486252870509414 34.927644305049974 0.5
P 7.326025157453479 18.90546567861801 36.357574813252306 0.5
A 10.720601517754044 23.3560228621081 14.89505519106636 2.5
E 8.937765630697111 25.07236416839182 15.2495530333258 0.5
E 12.503437404810978 21.63968155582438 14.54055734880692 0.5
E 10.680695781495633 23.821819269531076 12.439155918081838 0.5
E 10.760507254012456 22.890226454685127 17.350954464050883 0.5
P 12.472715592817645 25.113067604616536 15.19983386615351 0.5
P 8.968487442690444 21.598978119599668 14.59027651597921 0.5
A 36.9079227428811 10.159063734112724 31.497182376129977 2.5
E 38.624568172499146 10.435343088306324 29.700853289515447 0.5
E 35.19127731326305 9.882784379919125 33.29351146274451 0.5
E 35.571708750217425 8.676025839062556 29.992147237784522 0.5
E 38.24413673554477 11.642101629162893 33.00221751447543 0.5
P 38.139856440277526 8.1655070330653 32.36785513034228 0.5
P 35.67598904548467 12.152620435160149 30.62650962191768 0.5
A 9.029154674456096 6.032618337286712 3.9319346418004195 2.5
E 8.987543976625723 6.9099846040413695 1.591315710024837 0.5
E 9.07076537228647 5.155252070532054 6.272553573576002 0.5
E 7.367386887071982 7.771645153327622 4.613340214057006 0.5
E 10.690922461840211 4.293591521245801 3.250529069543833 0.5
P 7.161858133829038 4.4654507753933395 3.3776878896127225 0.5
P 10.896451215083154 7.599785899180084 4.486181393988116 0.5
A 23.928379325554527 4.303483189100796 17.26135336909537 2.5
E 22.8388290221005 3.085418552117906 15.3694763444508 0.5
E 25.017929629008552 5.521547826083687 19.153230393739943 0.5
E 26.162800389565827 3.9653614945891555 16.19222464513076 0.5
E 21.693958261543226 4.6416048836124375 18.33048209305998 0.5
P 23.6633460352892 6.4603309491050425 16.02532541827111 0.5
P 24.193412615819852 2.14663542909655 18.497381319919633 0.5
A 14.534022489566242 7.66923132443502 12.848012865658072 2.5
E 14.610988359310417 8.64058668231447 15.150304120824286 0.5
E 14.457056619822067 6.6978759665555705 10.545721610491858 0.5
E 16.943735048879358 8.24998996435579 12.522429107390833 0.5
E 12.124309930253126 7.08847268451425 13.173596623925311 0.5
P 15.195355715999456 5.440063728475112 13.766408310300069 0.5
P 13.872689263133028 9.898398920394929 11.929617421016076 0.5
A 13.106201100603679 38.15585666769278 37.606271727367265 2.5
E 14.462517240650463 38.539081176412 39.67110719397497 0.5
E 11.749884960556894 37.772632158973565 35.54143626075956 0.5
E 12.238579638734446 36.01965783276429 38.572650295294764 0.5
E 13.973822562472911 40.292055502621274 36.639893159439765 0.5
P 11.193705472596118 39.396740833746414 38.632218587241056 0.5
P 15.01869672861124 36.91497250163915 36.580324867493474 0.5
A 26.893536198956696 33.67084084942926 26.403717103886926 2.5
E 25.851146518275602 32.618244538635494 24.389898651266638 0.5
E 27.93592587963779 34.72343716022303 28.417535556507215 0.5
E 28.106424776357684 31.53952364965009 26.889914895672035 0.5
E 25.680647621555707 35.80215804920844 25.917519312101817 0.5
P 28.81507856185709 34.4451327843155 25.0043790649734 0.5
P 24.971993836056303 32.896548914543025 27.803055142800453 0.5
A 35.09942426783815 20.577645935741053 33.345910251962486 2.5
E 37.55896887610264 20.166703299700107 33.52414175827324 0.5
E 32.639879659573666 20.988588571782 33.167678745651735 0.5
E 35.0455146498645 19.3185520165447 31.18679555937812 0.5
E 35.153333885811804 21.836739854937406 35.505024944546854 0.5
P 34.65475127220202 18.457313732399445 34.593490820272805 0.5
P 35.544097263474285 22.69797813908266 32.09832968365217 0.5
A 7.665220423442577 7.4514782370157295 27.183334058313093 2.5
E 6.160298266862341 5.823275265590953 28.3383943972048 0.5
E 9.170142580022812 9.079681208440505 26.028273719421385 0.5
E 7.76771544630343 8.83305330325611 29.264378292978673 0.5
E 7.562725400581724 6.069903170775349 25.102289823647514 0.5
P 9.658886411748004 6.151399231651199 27.948246149267163 0.5
P 5.67155443513715 8.75155724238026 26.418421967359023 0.5
70
Properties=species:S:1:pos:R:3:radius:R:1
A 7.8581242495179415 17.064142885911547 35.57344023875985 2.5
E 8.700160090224342 16.163807599709497 37.7483820805999 0.5
E 7.016088408811542 17.964478172113598 33.3984983969198 0.5
E 10.167902071096561 17.825444509967703 34.99434935456788 0.5
E 5.548346427939322 16.30284126185539 36.15253112295182 0.5
P 8.311888569303713 14.859643802303168 34.485193147120995 0.5
P 7.40435992973217 19.268641969519926 36.661687330398706 0.5
A 10.660063793248767 23.230443022227654 15.217324418865037 2.5
E 8.383727982540265 22.224367702359284 15.45419511700635 0.5
E 12.93639960395727 24.236518342096023 14.980453720723723 0.5
E 11.688258884267949 21.084670604797974 15.984446043773488 0.5
E 9.631868702229585 25.376215439657333 14.450202793956585 0.5
P 10.765468402684276 22.434532736234388 12.849748298661085 0.5
P 10.554659183813259 24.02635330822092 17.584900539068986 0.5
A 36.15488284561679 9.994357934478833 31.480893268723438 2.5
E 37.09709564199743 12.262138296894811 31.949302570698247 0.5
E 35.21267004923615 7.726577572062855 31.01248396674863 0.5
E 35.92901175232813 10.58765070631965 29.06283910553819 0.5
E 36.38075393890545 9.401065162638016 33.89894743190869 0.5
P 38.45949068547863 9.1253493529784 31.052399640153016 0.5
P 33.85027500575495 10.863366515979266 31.90938689729386 0.5
A 8.996703539758107 6.173162974032618 4.539335977849071 2.5
E 6.559163216885352 6.720582104296874 4.63276761162231 0.5
E 11.434243862630861 5.625743843768362 4.445904344075832 0.5
E 9.162886230472354 6.490858257651708 7.01349301006683 0.5
E 8.83052084904386 5.855467690413527 2.0651789456313137 0.5
P 8.46681629922878 3.7546092734532124 4.885482637138606 0.5
P 9.526590780287433 8.591716674612023 4.193189318559536 0.5
A 23.350150757281497 4.876137962767285 16.85408489776792 2.5
E 22.48693293747909 7.12925205026272 17.50855560322988 0.5
E 24.213368577083905 2.6230238752718504 16.19961419230596 0.5
E 21.281221280848396 3.816276958251974 17.77399004106082 0.5
E 25.4190802337146 5.935998967282597 15.934179754475018 0.5
P 22.243631070549934 5.100128051476796 14.623514875769489 0.5
P 24.45667044401306 4.652147874057775 19.08465491976635 0.5
A 14.828361128543621 7.953795261689599 13.23316031288472 2.5
E 15.302123090352058 9.29050825420536 11.174338324663243 0.5
E 14.354599166735184 6.617082269173839 15.291982301106199 0.5
E 13.834675465928264 6.140899965613966 11.827457837472242 0.5
E 15.822046791158979 9.766690557765234 14.6388627882972 0.5
P 17.072940912703086 6.869079160072381 13.04540363141574 0.5
P 12.583781344384155 9.038511363306817 13.420916994353702 0.5
A 12.974279759164146 37.606675500176145 37.45599630521207 2.5
E 15.314651236804366 36.7858395039527 37.1415291146383 0.5
E 10.633908281523926 38.42751149639959 37.77046349578583 0.5
E 12.10099060828294 35.33353692270473 36.89012788715026 0.5
E 13.847568910045352 39.87981407764756 38.02186472327388 0.5
P 13.074416693392637 36.96709026354974 39.87072264984995 0.5
P 12.874142824935655 38.24626073680255 35.04126996057418 0.5
A 26.898730385829513 34.01630449239426 26.015165678634425 2.5
E 27.35789085751719 33.962163105184864 28.472041819475038 0.5
E 26.439569914141835 34.07044587960366 23.55828953779381 0.5
E 29.343034307737845 34.28476709644666 25.564270826623204 0.5
E 24.45442646392118 33.74784188834187 26.466060530645645 0.5
P 27.15279730336181 31.53135046054222 25.91292351023416 0.5
P 26.644663468297214 36.5012585242463 26.117407847034688 0.5
A 35.32714826684512 20.983226611250466 33.247312959971254 2.5
E 37.30338301233491 22.223023402715654 34.145867436111985 0.5
E 33.35091352135533 19.743429819785277 32.34875848383052 0.5
E 36.84685122318388 19.574304006077075 31.848942473609473 0.5
E 33.80744531050636 22.392149216423856 34.64568344633304 0.5
P 35.51422887838772 19.331608916835357 35.11470682209054 0.5
P 35.14006765530252 22.634844305665574 31.379919097851964 0.5
A 7.692568734146776 7.334817166854024 26.743848708996193 2.5
E 5.9613134169639 5.703027461820997 25.97572281744088 0.5
E 9.423824051329651 8.966606871887052 27.511974600551508 0.5
E 9.065020087293718 5.452045452559381 27.65024153503827 0.5
E 6.320117380999835 9.217588881148668 25.837455882954117 0.5
P 8.862668007702037 7.128824374738295 24.544204496941614 0.5
P 6.522469460591514 7.540809958969753 28.943492921050773 0.5
70
Properties=species:S:1:pos:R:3:radius:R:1
A 7.825525423262648 17.48832473514932 35.445869758065456 2.5
E 9.442300844435415 15.809977604037426 34.54077962720474 0.5
E 6.2087500020898805 19.166671866261215 36.35095988892617 0.5
E 5.947639414553334 16.292893779202426 34.30811364717918 0.5
E 9.703411431971963 18.683755691096213 36.583625868951735 0.5
P 7.494494645559449 16.07266385165577 37.47966495108781 0.5
P 8.156556200965847 18.90398561864287 33.4120745650431 0.5
A 10.974394940341877 23.35419701951393 15.619327429939103 2.5
E 9.27850831669221 23.70236310375023 17.4228653246099 0.5
E 12.670281563991544 23.00603093527763 13.815789535268303 0.5
E 11.829566867003553 25.676274766393202 15.97518683096388 0.5
E 10.119223013680202 21.032119272634656 15.263468028914327 0.5
P 12.600017755011928 22.495864149797573 17.31361641036381 0.5
P 9.348772125671827 24.212529889230286 13.925038449514396 0.5
A 36.09678941171316 9.692005364937264 31.609711259534613 2.5
E 34.094574762198306 10.746051935671057 32.67278337561696 0.5
E 38.099004061228015 8.637958794203472 30.54663914345227 0.5
E 35.95863591551956 11.329620701029784 29.725797879762755 0.5
E 36.23494290790676 8.054390028844745 33.493624639306475 0.5
P 37.58744366698396 11.259551803712933 32.863006138453436 0.5
P 34.60613515644236 8.124458926161596 30.356416380615794 0.5
A 9.164807551869739 6.213248843756732 4.860768507242789 2.5
E 10.238177349108007 8.020114996136986 6.214693167539144 0.5
E 8.091437754631471 4.4063826913764785 3.5068438469464347 0.5
E 11.389699255685228 5.62201434127249 3.8859358706509686 0.5
E 6.93991584805425 6.804483346240974 5.8356011438346105 0.5
P 9.549169600814519 4.589772182250898 6.722646415397935 0.5
P 8.780445502924959 7.836725505262566 2.9988905990876438 0.5
A 22.635517963488372 5.521532165538749 16.745338283159143 2.5
E 22.911485607870073 5.454356588349821 14.261524823761205 0.5
E 22.35955031910667 5.588707742727676 19.229151742557082 0.5
E 23.81510074070712 7.724592662051702 16.816814995419946 0.5
E 21.455935186269624 3.318471669025796 16.67386157089834 0.5
P 20.44864203400679 6.701367700914776 16.47045325533726 0.5
P 24.822393892969952 4.341696630162721 17.020223310981024 0.5
A 15.369991282212148 7.949386623342793 13.778911162288459 2.5
E 13.102183394626474 8.161230255540547 12.748295006533716 0.5
E 17.637799169797823 7.73754299114504 14.809527318043202 0.5
E 14.330566452589235 7.118415035816177 15.895295400627067 0.5
E 16.40941611183506 8.780358210869409 11.662526923949851 0.5
P 15.53321936977308 5.601066266955707 12.937039381546022 0.5
P 15.206763194651215 10.29770697972988 14.620782943030896 0.5
A 13.018289797146785 37.09928069671758 37.235657242605654 2.5
E 12.722163068028346 36.953683881076124 34.75753082783741 0.5
E 13.314416526265225 37.24487751235903 39.7137836573739 0.5
E 11.066487485668176 35.570844404004696 37.558690114029474 0.5
E 14.970092108625394 38.62771698943046 36.912624371181835 0.5
P 14.55216616022297 35.12629208387953 37.168283387120006 0.5
P 11.4844134340706 39.07226930955563 37.3030310980913 0.5
A 26.579554656871675 34.664810627433496 26.05492753991685 2.5
E 24.44306020837029 35.33452180118695 24.94277718350198 0.5
E 28.71604910537306 33.99509945368004 27.16707789633172 0.5
E 27.7559455472518 36.56934565329363 24.941890789264033 0.5
E 25.40316376649155 32.76027560157336 27.167964290569667 0.5
P 26.03046819322992 36.13933878214025 27.99767579340305 0.5
P 27.128641120513432 33.19028247272674 24.11217928643065 0.5
A 35.42374362793381 21.359461414437828 33.374210775806446 2.5
E 34.482411865621536 23.397622770113287 34.47411659063515 0.5
E 36.36507539024608 19.321300058762368 32.274304960977744 0.5
E 37.36225924433758 21.403166548831877 34.95226244358765 0.5
E 33.48522801153004 21.31575628004378 31.796159108025243 0.5
P 34.1564426699047 19.912399512009493 34.97107023496987 0.5
P 36.69104458596292 22.806523316866162 31.777351316643017 0.5
A 8.178951424000946 7.188502501432299 26.7748147533056 2.5
E 9.427121479331506 5.9251632502129254 25.01525644244807 0.5
E 6.930781368670386 8.451841752651672 28.534373064163127 0.5
E 7.892264258115828 5.079247556326386 28.085865494301622 0.5
E 8.465638589886064 9.297757446538212 25.463764012309575 0.5
P 10.32601499592798 7.641291097664515 27.972771557714335 0.5
P 6.031887852073911 6.7357139052000825 25.576857948896862 0.5
70
Properties=species:S:1:pos:R:3:radius:R:1
A 7.440134628562915 17.848312783636892 35.51326531042064 2.5
E 5.629039422432903 16.125568640847952 35.558946519035665 0.5
E 9.251229834692927 19.571056926425833 35.46758410180562 0.5
E 7.1216507757578 18.24802144535286 37.960468003548634 0.5
E 7.75861848136803 17.448604121920923 33.06606261729265 0.5
P 9.133799940788604 16.081285448184246 36.02229596365071 0.5
P 5.746469316337226 19.615340119089538 35.00423465719057 0.5
A 11.168007113674223 23.680655456921823 15.814243917839446 2.5
E 10.896208935910815 25.74431248169933 14.429525377972682 0.5
E 11.439805291437631 21.616998432144317 17.198962457706212 0.5
E 10.081156229667656 22.329248213055862 14.013562486502812 0.5
E 12.25485799768079 25.032062700787783 17.61492534917608 0.5
P 13.402930133936538 23.274431201967907 14.770164922653498 0.5
P 8.933084093411908 24.08687971187574 16.858322913025397 0.5
A 36.14651152327389 9.343008036093751 31.38617592188875 2.5
E 35.07394178742983 9.364442710965529 29.128049548883027 0.5
E 37.21908125911794 9.321573361221974 33.64430229489447 0.5
E 38.05863028527324 10.681609165104614 30.49065994915553 0.5
E 34.234392761274535 8.004406907082888 32.28169189462197 0.5
P 34.94509735581917 11.454331690137206 31.976867403218144 0.5
P 37.3479256907286 7.231684382050296 30.795484440559356 0.5
A 8.996800005563806 6.642211832093317 4.983343885767324 2.5
E 10.347000949365345 8.69741963755682 5.4339859695973445 0.5
E 7.646599061762267 4.587004026629813 4.5327018019373035 0.5
E 9.88515985430519 6.570745156512673 2.6475979035541526 0.5
E 8.108440156822422 6.7136785076739605 7.319089867980495 0.5
P 10.904094998610491 5.220588326856195 5.7522472729725695 0.5
P 7.089505012517121 8.063835337330438 4.2144404985620785 0.5
A 22.12366833251332 6.460380869223673 16.683483088834524 2.5
E 20.66614904596884 6.568513695380002 18.71176926717843 0.5
E 23.581187619057797 6.352248043067345 14.65519691049062 0.5
E 20.540909831803283 4.8353130602263406 15.632754701194152 0.5
E 23.706426833223354 8.085448678221006 17.734211476474897 0.5
P 20.850674594200516 8.357078501444121 15.667596759490367 0.5
P 23.39666207082612 4.563683237003224 17.69936941817868 0.5
A 15.591803747262423 7.856841610337998 14.003047418303366 2.5
E 13.253201614893694 7.043193006999568 14.347889435416844 0.5
E 17.930405879631152 8.670490213676429 13.658205401189887 0.5
E 15.28204185571331 9.525250671022595 15.83892834493518 0.5
E 15.901565638811537 6.188432549653402 12.167166491671551 0.5
P 16.41944354634496 6.182211156622314 15.664560345265913 0.5
P 14.764163948179883 9.531472064053682 12.341534491340818 0.5
A 13.064813525703991 36.9533318820462 37.38258246226575 2.5
E 12.063536040017592 39.22044469810716 37.71067219984571 0.5
E 14.066091011390391 34.68621906598524 37.054492724685794 0.5
E 10.800299944745685 35.919701912561585 37.61407183099407 0.5
E 15.329327106662298 37.986961851530815 37.15109309353743 0.5
P 12.719239165676344 37.15780331142205 34.91503919086075 0.5
P 13.41038788573164 36.74886045267035 39.85012573367075 0.5
A 26.376833850312245 35.01516147191514 26.54582107354136 2.5
E 25.936915567341735 32.568470427066785 26.280915740698823 0.5
E 26.816752133282755 37.4618525167635 26.8107264063839 0.5
E 25.8849173683252 35.36625759320213 24.119970771406454 0.5
E 26.86875033229929 34.66406535062816 28.97167137567627 0.5
P 23.965508472214328 35.389907312021975 27.08902957519138 0.5
P 28.788159228410162 34.64041563180831 26.002612571891344 0.5
A 35.67495271315823 21.58400862400251 33.61450782432278 2.5
E 37.01531187137435 19.490851839199003 33.345933809909525 0.5
E 34.3345935549421 23.67716540880602 33.88308183873603 0.5
E 34.362888323800604 21.006629807083854 31.566308434626045 0.5
E 36.98701710251585 22.161387440921168 35.66270721401951 0.5
P 34.0220993121675 20.344924939982143 35.022608409802636 0.5
P 37.327806114148956 22.82309230802288 32.20640723884292 0.5
A 8.627226185792953 7.28842724485028 26.407314011526584 2.5
E 7.496473399826852 5.536959377080517 27.78708154455642 0.5
E 9.757978971759055 9.039895112620043 25.02754647849675 0.5
E 6.403079068215302 8.283225440606689 25.84736209475684 0.5
E 10.851373303370604 6.293629049093871 26.967265928296328 0.5
P 8.783967170874131 8.76921651341388 28.415471227908295 0.5
P 8.470485200711774 5.807637976286679 24.399156795144872 0.5
70
Properties=species:S:1:pos:R:3:radius:R:1
A 6.966275671020849 17.88451723342122 36.00552343841799 2.5
E 6.553767280524397 15.495189920300971 36.614581578950336 0.5
E 7.378784061517301 20.273844546541472 35.39646529788564 0.5
E 9.376366596915092 17.36336541796748 35.59337963563475 0.5
E 4.556184745126606 18.405669048874962 36.41766724120123 0.5
P 6.445412390789474 17.365368144981332 33.6161332092424 0.5
P 7.487138951252224 18.40366632186111 38.39491366759358 0.5
A 11.125794415739344 23.759086191279472 15.533453250571368 2.5
E 11.003734747720143 24.241807693506907 13.083538682932305 0.5
E 11.247854083758545 23.276364689052038 17.983367818210432 0.5
E 9.42867448557743 21.943820366707982 15.260334359262535 0.5
E 12.822914345901259 25.574352015850963 15.806572141880201 0.5
P 12.957429035441109 22.109301375786906 15.117130440146688 0.5
P 9.29415979603758 25.40887100677204 15.949776060996047 0.5
A 36.19958066347905 9.224627388006876 31.15029945028606 2.5
E 37.2771669552488 11.411306976516236 31.704591937142883 0.5
E 35.12199437170929 7.037947799497516 30.596006963429236 0.5
E 36.82858779954065 8.343446867928106 33.40371262008355 0.5
E 35.570573527417444 10.105807908085646 28.89688628048857 0.5
P 34.03321093359152 10.056464672714485 32.080293496071725 0.5
P 38.365950393366575 8.392790103299268 30.220305404500397 0.5
A 8.849427052055994 6.6508249711588645 5.011983710671225 2.5
E 9.146448933262503 7.353952055943722 2.631355578281429 0.5
E 8.552405170849484 5.947697886374007 7.392611843061021 0.5
E 6.36717843110548 6.720637607802992 4.722902442593708 0.5
E 11.331675673006508 6.581012334514737 5.301064978748742 0.5
P 8.86425222905517 4.252755226884112 4.305554863779904 0.5
P 8.834601875056817 9.048894715433617 5.718412557562545 0.5
A 21.41497746176645 6.614132635597445 16.667207320286735 2.5
E 23.822844274418863 6.043894875389062 17.02358676604947 0.5
E 19.00711064911404 7.184370395805828 16.310827874524 0.5
E 21.116699589795797 6.895865173795564 19.133308917548213 0.5
E 21.713255333737106 6.332400097399325 14.20110572302526 0.5
P 22.01764463660036 9.03187035374544 16.46389327103105 0.5
P 20.812310286932544 4.1963949174494495 16.87052136954242 0.5
A 16.19831809185924 7.747928166254564 14.314430559899327 2.5
E 14.246404372121566 6.577750558746934 15.349185215645678 0.5
E 18.150231811596914 8.918105773762193 13.279675904152976 0.5
E 15.648793755828796 9.81254391742094 15.61265427103204 0.5
E 16.74784242788968 5.683312415088187 13.016206848766613 0.5
P 17.660527322718945 6.9617690430965276 16.18362771329574 0.5
P 14.736108860999533 8.5340872894126 12.445233406502915 0.5
A 12.59757861057194 36.83113657490303 37.86135169793502 2.5
E 13.559521736276327 35.01789636542474 39.28852560662197 0.5
E 11.635635484867553 38.644376784381315 36.434177789248075 0.5
E 10.363777582847142 35.711678133768395 37.944692966845615 0.5
E 14.831379638296738 37.95059501603766 37.77801042902443 0.5
P 12.018960954912101 38.13841341677667 39.91226097609804 0.5
P 13.176196266231779 35.52385973302938 35.810442419772 0.5
A 26.563384313449667 35.1951384328516 26.614270203512948 2.5
E 28.02541890800792 33.84943071591066 28.131348179386833 0.5
E 25.101349718891413 36.54084614979254 25.097192227639063 0.5
E 26.889460282269745 33.505234354604376 24.80101383198614 0.5
E 26.23730834462959 36.885042511098824 28.427526575039757 0.5
P 24.56185257328813 33.936847946958096 27.427028314045813 0.5
P 28.564916053611203 36.453428918745104 25.801512092980083 0.5
A 35.965663231256336 21.77724258099329 33.59523591953376 2.5
E 36.58059974698986 23.90300971823996 34.75840708484887 0.5
E 35.35072671552281 19.651475443746616 32.43206475421866 0.5
E 37.65014302999583 20.539570347142888 34.96662034747335 0.5
E 34.28118343251684 23.01491481484369 32.223851491594175 0.5
P 34.22371578966777 21.330832993552846 35.3319965797818 0.5
P 37.7076106728449 22.22365216843373 31.858475259285726 0.5
A 9.250371383135839 7.088017908750241 26.14639185310089 2.5
E 6.960296038905888 7.282947162827319 27.130036862064177 0.5
E 11.54044672736579 6.893088654673163 25.162746844137605 0.5
E 8.450562944804076 8.212167231868534 24.06154299495569 0.5
E 10.050179821467601 5.963868585631948 28.23124071124609 0.5
P 9.85523614465426 9.312493326740064 27.113784087427604 0.5
P 8.645506621617418 4.863542490760419 25.178999618774178 0.5
70
Properties=species:S:1:pos:R:3:radius:R:1
A 6.525699340873428 18.675623608640272 36.10046883836455 2.5
E 4.42089319302828 18.032115830455883 34.91485135392428 0.5
E 8.630505488718576 19.31913138682466 37.28608632280482 0.5
E 6.376902578895631 20.97018645374593 35.11922428501072 0.5
E 6.674496102851224 16.381060763534613 37.081713391718374 0.5
P 5.1849344085981235 19.4311890189641 38.07061358104311 0.5
P 7.866464273148732 17.920058198316443 34.130324095685985 0.5
A 10.928467481225725 23.90948260845622 15.10239392358091 2.5
E 8.810123605922943 24.264727424522107 13.823167459413796 0.5
E 13.046811356528508 23.55423779239033 16.381620387748026 0.5
E 9.76472956574227 22.25322953171656 16.569547565793147 0.5
E 12.092205396709181 25.56573568519588 13.635240281368675 0.5
P 11.567477097767924 22.07083450007639 13.533623754461843 0.5
P 10.289457864683527 25.748130716836048 16.67116409269998 0.5
A 36.11966481222192 9.19674743870013 30.767387500973168 2.5
E 35.74572681694526 10.922380619938728 32.53723509313942 0.5
E 36.49360280749858 7.471114257461534 28.997539908806914 0.5
E 34.17101368361797 7.889660125653613 31.630105030100317 0.5
E 38.06831594082587 10.503834751746648 29.90466997184602 0.5
P 34.59883308100413 10.447232496540106 29.226816838705478 0.5
P 37.64049654343971 7.946262380860155 32.30795816324086 0.5
A 8.356884766304358 6.812782791234072 4.942466884749477 2.5
E 6.962962270369854 8.853750087276241 4.566391663798935 0.5
E 9.750807262238862 4.771815495191904 5.318542105700018 0.5
E 7.415139695876311 6.594420774527037 7.247989439829576 0.5
E 9.298629836732404 7.031144807941108 2.636944329669378 0.5
P 6.507534529693901 5.38562809529361 4.051886637830148 0.5
P 10.206235002914815 8.239937487174535 5.833047131668805 0.5
A 20.86646225427079 6.956507785049219 16.65697208738475 2.5
E 21.241135489154495 4.722936668178049 17.71564107859177 0.5
E 20.491789019387085 9.190078901920389 15.598303096177736 0.5
E 22.944880781240617 7.820743037312639 17.744756006872617 0.5
E 18.788043727300963 6.092272532785798 15.569188167896886 0.5
P 22.204294976928214 6.23939029493572 14.67053152407485 0.5
P 19.528629531613365 7.673625275162718 18.643412650694653 0.5
A 16.816478996250005 7.361835007305762 14.057399699758044 2.5
E 16.283086464476494 5.820641832591131 15.952186232658946 0.5
E 17.349871528023517 8.903028182020392 12.162613166857142 0.5
E 14.705064461695041 8.627718809249313 14.492677614713903 0.5
E 18.92789353080497 6.095951205362212 13.622121784802184 0.5
P 18.04424976895948 8.86923734185063 15.629123954037526 0.5
P 15.588708223540529 5.854432672760895 12.485675445478561 0.5
A 12.215719367610586 36.752657428754944 38.0089038070791 2.5
E 10.398926414512154 38.36957690207507 37.43025470583919 0.5
E 14.032512320709017 35.13573795543482 38.58755290831901 0.5
E 10.552029316096863 34.88663241604665 38.018180899133895 0.5
E 13.879409419124308 38.618682441463235 37.999626715024306 0.5
P 12.641628721888996 36.36083850534657 35.57681023297613 0.5
P 11.789810013332175 37.144476352163316 40.44099738118207 0.5
A 27.078422926789067 35.41838276750566 26.758080383772025 2.5
E 27.636184120319648 37.81914543984187 27.176698398326433 0.5
E 26.520661733258486 33.017620095169455 26.339462369217618 0.5
E 29.49402104288143 34.93050553000414 26.33753128716151 0.5
E 24.662824810696705 35.906260005007184 27.17862948038254 0.5
P 27.400584675796264 34.920071226152245 29.18663909527801 0.5
P 26.75626117778187 35.91669430885908 24.32952167226604 0.5
A 36.10164649526425 21.579490584428207 33.573812287045754 2.5
E 37.04021924113961 23.748022962324217 34.39023651911965 0.5
E 35.163073749388886 19.410958206532197 32.75738805497186 0.5
E 36.10699772278793 20.696606363849668 35.912719471484294 0.5
E 36.096295267740565 22.462374805006746 31.234905102607218 0.5
P 33.78452488320657 22.45583685107792 33.909914437983744 0.5
P 38.418768107321924 20.703144317778495 33.237710136107765 0.5
A 9.505020300064523 6.60576667320685 25.847983977727317 2.5
E 9.228377151139853 5.0592931434644335 23.90327623876944 0.5
E 9.781663448989192 8.152240202949267 27.792691716685194 0.5
E 8.15830552486259 8.34346489116103 24.657704927430597 0.5
E 10.851735075266456 4.868068455252669 27.038263028024037 0.5
P 7.4170002133772694 5.689893032834727 26.873336401270397 0.5
P 11.593040386751776 7.521640313578974 24.822631554184238 0.5
70
Properties=species:S:1:pos:R:3:radius:R:1
A 6.179002700012447 19.509337958627476 35.20038523454115 2.5
E 4.063096099633631 20.216113801506854 34.07193179447535 0.5
E 8.294909300391263 18.8025621157481 36.328838674606956 0.5
E 5.721914932884382 21.113769000815367 37.06233899444138 0.5
E 6.636090467140511 17.904906916439586 33.33843147464092 0.5
P 4.92839883322805 17.72712895326731 36.42909229059556 0.5
P 7.429606566796844 21.291546963987642 33.97167817848674 0.5
A 11.054916186433497 23.853040171973845 15.06557797012894 2.5
E 9.813562350640163 21.794167168577623 15.751203677236958 0.5
E 12.29627002222683 25.911913175370067 14.379952263020922 0.5
E 12.853863089837628 22.434933330083254 14.06419741124248 0.5
E 9.255969283029366 25.271147013864436 16.066958529015402 0.5
P 9.84131382441625 23.85690551404038 12.879907737445876 0.5
P 12.268518548450743 23.84917482990731 17.251248202812004 0.5
A 35.63994226525287 9.143802975449463 30.352855477986 2.5
E 34.999178527019176 11.43820079409219 29.59446212254832 0.5
E 36.280706003486564 6.849405156806736 31.11124883342368 0.5
E 36.00074581491661 8.458833563380411 27.97574847511895 0.5
E 35.27913871558913 9.828772387518514 32.72996248085305 0.5
P 38.02934441439281 9.862520969058234 30.508424804487582 0.5
P 33.25054011611293 8.42508498184069 30.19728615148442 0.5
A 8.238140131087638 6.974929763529955 4.618736261114196 2.5
E 7.800071141675019 8.531295787284773 6.525518986181645 0.5
E 8.676209120500257 5.418563739775138 2.711953536046748 0.5
E 8.62735731370129 5.106353885842447 6.233336575149117 0.5
E 7.8489229484739855 8.843505641217464 3.0041359470792752 0.5
P 5.807789221183409 6.395146192337226 4.533615962115029 0.5
P 10.668491040991867 7.554713334722685 4.703856560113364 0.5
A 20.40296753652123 7.323126454330095 16.402852317082647 2.5
E 21.42047634580096 7.639692619253812 18.664369879753 0.5
E 19.385458727241502 7.006560289406377 14.141334754412295 0.5
E 21.846253615039362 5.315324603323277 16.03453584629677 0.5
E 18.9596814580031 9.330928305336911 16.771168787868525 0.5
P 18.633334490210014 5.867613627068891 17.402792960863167 0.5
P 22.172600582832448 8.7786392815913 15.402911673302128 0.5
A 16.79532600850574 7.222465167318556 13.55560545937242 2.5
E 16.95356049893858 4.796701279528831 14.139241824529927 0.5
E 16.6370915180729 9.648229055108281 12.971969094214911 0.5
E 15.814312235103058 7.699680387167275 15.805022630628232 0.5
E 17.77633978190842 6.745249947469837 11.306188288116607 0.5
P 19.089356048072183 7.593861444415603 14.477283810494306 0.5
P 14.501295968939296 6.851068890221509 12.633927108250532 0.5
A 11.99172117087261 36.771103205865366 37.91995764173336 2.5
E 10.931226205043993 36.724498527313536 40.183401573308686 0.5
E 13.052216136701228 36.817707884417196 35.65651371015804 0.5
E 13.26565092502639 34.69261857758393 38.47403762826545 0.5
E 10.71779141671883 38.8495878341468 37.365877655201274 0.5
P 10.12023689123525 35.3826761627944 37.01452021311923 0.5
P 13.863205450509971 38.159530248936335 38.82539507034749 0.5
A 27.690527206569694 35.6993452581979 26.73400218543643 2.5
E 25.45037566158404 34.58951960882427 26.731159037211693 0.5
E 29.930678751555348 36.809170907571534 26.73684533366117 0.5
E 28.084075777057258 34.91097215233284 24.394432274402156 0.5
E 27.29697863608213 36.487718364062964 29.073572096470706 0.5
P 26.65281791290088 37.79618928528769 25.85286397386443 0.5
P 28.72823650023851 33.602501231108114 27.61514039700843 0.5
A 36.21904206180659 21.440281505132628 33.36782793935173 2.5
E 37.18561982451342 23.666775758664382 33.96653552042238 0.5
E 35.25246429909976 19.213787251600873 32.76912035828107 0.5
E 34.00712426965569 22.152616577956092 34.28978153080446 0.5
E 38.43095985395749 20.727946432309164 32.44587434789899 0.5
P 35.568544475794404 22.32645422137726 31.122488141553486 0.5
P 36.869539647818776 20.554108788887994 35.61316773714997 0.5
A 9.615257312407024 6.6183828998034215 25.556097486062257 2.5
E 10.640218694020058 8.841505971616677 26.063224663185565 0.5
E 8.59029593079399 4.395259827990166 25.048970308938948 0.5
E 7.873798628707671 7.740488931491647 24.156740595694192 0.5
E 11.356715996106377 5.496276868115196 26.95545437643032 0.5
P 11.087254533591079 6.397924601651465 23.547460555304006 0.5
P 8.14326009122297 6.838841197955378 27.564734416820507 0.5
70
Properties=species:S:1:pos:R:3:radius:R:1
A 6.048945473652893 19.849751639460816 34.44253124807108 2.5
E 6.119006888188533 21.332662842008265 32.431047774722714 0.5
E 5.978884059117252 18.366840436913368 36.45401472141944 0.5
E 4.773118713614587 18.14070441102836 33.138144936674585 0.5
E 7.324772233691198 21.558798867893273 35.74691755946757 0.5
P 8.197749205165957 18.786675002360905 33.733651436615766 0.5
P 3.900141742139829 20.912828276560727 35.15141105952639 0.5
A 11.048037402132254 23.627283213577133 14.910191406440328 2.5
E 13.436115214051906 22.887947079265185 14.931788737706468 0.5
E 8.659959590212601 24.36661934788908 14.888594075174188 0.5
E 11.453380592492591 24.87437693935476 12.781705057610559 0.5
E 10.642694211771916 22.380189487799505 17.038677755270097 0.5
P 10.429344213026654 21.590585072067977 13.599054717102561 0.5
P 11.666730591237853 25.66398135508629 16.221328095778095 0.5
A 36.01546092905885 8.48904094191145 29.965301000070127 2.5
E 36.38160559831484 10.845880896759924 29.216139129440602 0.5
E 35.64931625980285 6.132200987062975 30.714462870699652 0.5
E 38.44653709715496 8.007096212201942 29.637279747069314 0.5
E 33.584384760962735 8.970985671620957 30.29332225307094 0.5
P 36.46912021320325 9.169507476529384 32.32774857603335 0.5
P 35.561801644914446 7.808574407293514 27.602853424106904 0.5
A 7.967223698613858 7.058122541085803 4.521820748287752 2.5
E 7.049297313068645 8.064696637785286 6.618060176066148 0.5
E 8.885150084159072 6.051548444386319 2.4255813205093557 0.5
E 9.785902728412816 5.964506624852031 5.843339122858786 0.5
E 6.1485446688149 8.151738457319574 3.2003023737167178 0.5
P 6.518148911969428 5.047945231589706 4.852531266864972 0.5
P 9.416298485258288 9.0682998505819 4.191110229710532 0.5
A 19.985902222108663 7.63367970326148 15.736049540553548 2.5
E 21.586083655356262 5.780566481627652 15.230687523284466 0.5
E 18.385720788861065 9.486792924895308 16.24141155782263 0.5
E 18.220098023311948 5.955596484217399 16.298163622815554 0.5
E 21.75170642090538 9.311762922305562 15.17393545829154 0.5
P 20.741782445559622 7.636525361580102 18.1190386278192 0.5
P 19.230021998657705 7.630834044942858 13.353060453287897 0.5
A 16.909536161805896 7.401409690602668 13.160705227433807 2.5
E 17.572586754375404 5.102322106526158 12.436439949762796 0.5
E 16.246485569236388 9.700497274679178 13.884970505104818 0.5
E 18.163810667382133 7.089018889862233 15.300613508710283 0.5
E 15.65526165622966 7.713800491343102 11.020796946157331 0.5
P 18.967972310039823 8.332327661403205 12.090082812534 0.5
P 14.85110001357197 6.47049171980213 14.231327642333614 0.5
A 11.68848385585795 36.891767284240046 37.7952136680519 2.5
E 11.00829459927348 38.81081310268704 39.245939597345334 0.5
E 12.36867311244242 34.97272146579305 36.34448773875847 0.5
E 14.093800883169479 37.46081080396137 38.17023296193493 0.5
E 9.28316682854642 36.32272376451872 37.42019437416887 0.5
P 11.730822648335145 35.393951334478395 39.79640201683052 0.5
P 11.646145063380754 38.3895832340017 35.79402531927328 0.5
A 28.224945243286534 35.962554496326845 26.08592630981677 2.5
E 28.55672996553641 35.71298745180391 28.551212335488206 0.5
E 27.89316052103666 36.21212154084978 23.620640284145335 0.5
E 30.00873579505189 34.260198285177474 25.673525294062692 0.5
E 26.441154691521177 37.66491070747622 26.49832732557085 0.5
P 26.505058570998088 34.14880158574326 26.133782488470576 0.5
P 29.94483191557498 37.77630740691043 26.038070131162964 0.5
A 36.20082491997702 21.027463215847582 33.36203573321451 2.5
E 37.67819518367527 21.694717125401123 31.45884122814516 0.5
E 34.723454656278776 20.360209306294042 35.26523023828386 0.5
E 35.078693483057705 19.339125829909843 31.8990463588434 0.5
E 37.32295635689634 22.715800601785322 34.825025107585624 0.5
P 37.87659284609867 19.30865866284253 34.060256877517325 0.5
P 34.52505699385538 22.746267768852636 32.6638145889117 0.5
A 9.625299081444187 6.797620877212544 24.856990648336545 2.5
E 7.591041122136216 5.385017019953472 25.19808432674846 0.5
E 11.659557040752157 8.210224734471616 24.51589696992463 0.5
E 9.613986880190346 6.226234658557987 22.423189131524204 0.5
E 9.636611282698027 7.369007095867101 27.290792165148886 0.5
P 8.172141626417867 8.779556328127141 24.39844372673202 0.5
P 11.078456536470506 4.8156854262979465 25.31553756994107 0.5
70
Properties=species:S:1:pos:R:3:radius:R:1
A 6.087353289484495 19.91154606388874 33.72656478714228 2.5
E 7.292768217921841 17.73290138503177 33.95124725995573 0.5
E 4.881938361047149 22.09019074274571 33.50188231432883 0.5
E 7.467738920029933 20.86637251304157 35.57935780390989 0.5
E 4.706967658939058 18.95671961473591 31.873771770374667 0.5
P 7.787797455367344 20.6808404258123 32.06323204128878 0.5
P 4.386909123601646 19.14225170196518 35.38989753299578 0.5
A 11.160813685765193 23.471131330107422 14.479354920013469 2.5
E 9.95266008216942 24.387127499342352 12.491563208574455 0.5
E 12.368967289360967 22.555135160872492 16.467146631452483 0.5
E 9.310262856088258 21.831235791344547 14.848413517972915 0.5
E 13.011364515442128 25.111026868870297 14.110296322054023 0.5
P 12.329499484815015 21.821375699750998 13.008817649759251 0.5
P 9.992127886715371 25.120886960463846 15.949892190267686 0.5
A 36.38432771751822 7.795057896326437 29.12013430612764 2.5
E 34.242028780358545 8.751442766799702 28.25648898345504 0.5
E 38.52662665467789 6.838673025853173 29.98377962880024 0.5
E 37.23505790880881 10.10321101591185 29.565877862642687 0.5
E 35.533597526227624 5.4869047767410235 28.67439074961259 0.5
P 35.41643650179659 7.706983177605049 31.423486089605564 0.5
P 37.35221893323985 7.883132615047825 26.816782522649714 0.5
A 7.785005976040896 7.425568701500229 4.889592726237329 2.5
E 7.785574304508646 7.718583056947495 7.372361798161557 0.5
E 7.784437647573146 7.132554346052962 2.4068236543131016 0.5
E 10.028234362889394 8.521499472506035 4.759738386307464 0.5
E 5.541777589192398 6.329637930494423 5.019447066167195 0.5
P 8.888602859616938 5.197771957480848 5.152262834732384 0.5
P 6.681409092464853 9.65336544551961 4.626922617742275 0.5
A 19.423268796687857 7.812105436897684 15.071465399938276 2.5
E 20.928658292961767 9.778141355823172 14.727219513970503 0.5
E 17.917879300413947 5.8460695179721975 15.415711285906049 0.5
E 17.575846911209684 9.021376324920572 13.898990966767409 0.5
E 21.27069068216603 6.602834548874796 16.243939833109145 0.5
P 20.178804925252994 6.8517062048707675 12.890456809043307 0.5
P 18.66773266812272 8.7725046689246 17.252473990833245 0.5
A 16.57132751285445 7.297624466714556 12.543208833555733 2.5
E 14.301851665037672 6.429033975783572 11.95581634531462 0.5
E 18.840803360671227 8.16621495764554 13.130601321796846 0.5
E 17.10436092220224 5.135934117284306 13.68029731634882 0.5
E 16.038294103506658 9.459314816144806 11.406120350762645 0.5
P 17.47429747951828 6.390626455555827 10.395652117876558 0.5
P 15.668357546190617 8.204622477873285 14.690765549234907 0.5
A 11.466185172410372 37.000498888248806 38.02600584451255 2.5
E 9.767968922669654 38.512144446840466 36.986299504095804 0.5
E 13.164401422151089 35.48885332965715 39.06571218492929 0.5
E 13.090496346562855 38.89798197971148 38.13169939745087 0.5
E 9.841873998257888 35.10301579678613 37.92031229157422 0.5
P 10.613146616050786 37.604225335242354 40.297093601196686 0.5
P 12.319223728769957 36.39677244125526 35.75491808782841 0.5
A 28.68244151102837 36.28489176306112 25.441737826174492 2.5
E 29.7816648192822 38.36420567279972 24.59429356053807 0.5
E 27.58321820277454 34.20557785332252 26.289182091810915 0.5
E 30.74654849416564 34.977736530347755 24.91182504112867 0.5
E 26.618334527891097 37.59204699577448 25.971650611220316 0.5
P 29.566280003489773 36.75158101980337 27.73325057038647 0.5
P 27.798603018566965 35.81820250631887 23.150225081962514 0.5
A 36.12031222762583 20.869426473417597 33.59652707668443 2.5
E 38.48113813857034 21.177519340880025 32.833913279777775 0.5
E 33.759486316681325 20.56133360595517 34.35914087359109 0.5
E 36.86510727563176 21.052127600142633 35.97600194201918 0.5
E 35.375517179619905 20.686725346692562 31.217052211349685 0.5
P 35.77134037391918 23.3436332318177 33.51578327191673 0.5
P 36.46928408133248 18.395219715017493 33.67727088145213 0.5
A 9.595124982022506 7.088682641693872 24.77640115994 2.5
E 11.557476481665988 7.282395748171848 23.239634481413496 0.5
E 7.632773482379023 6.894969535215895 26.313167838466505 0.5
E 8.49819517541596 5.511278329193117 23.176857276738946 0.5
E 10.692054788629052 8.666086954194625 26.375945043141055 0.5
P 10.688706982253333 5.158845636326208 25.92957397504122 0.5
P 8.50154298179168 9.018519647061535 23.623228344838783 0.5
70
Properties=species:S:1:pos:R:3:radius:R:1
A 5.712546150680761 19.859038680901733 32.854840960438956 2.5
E 7.004280856193812 21.910092268383455 33.4668872265435 0.5
E 4.420811445167709 17.80798509342001 32.242794694334414 0.5
E 5.198141352458486 20.85043051771072 30.618207345052777 0.5
E 6.226950948903036 18.867646844092747 35.09147457582513 0.5
P 7.7902393797547855 18.829319589504518 31.92056614076699 0.5
P 3.634852921606736 20.88875777229895 33.78911578011092 0.5
A 11.132671335766327 23.357226691082378 13.85803441232078 2.5
E 9.396538874847014 23.52731434320904 15.648820348365671 0.5
E 12.86880379668564 23.187139038955717 12.06724847627589 0.5
E 12.757782028682849 24.572625412249707 15.318110158422021 0.5
E 9.507560642849805 22.14182796991505 12.39795866621954 0.5
P 11.903942568155115 21.17918258244299 14.8126361863138 0.5
P 10.36140010337754 25.535270799721765 12.90343263832776 0.5
A 36.76196749519329 7.186522898461882 28.636500288118 2.5
E 34.71134555080589 6.800991071997008 27.25943280539278 0.5
E 38.81258943958069 7.572054724926756 30.01356777084322 0.5
E 37.21615558884209 9.29371113655965 27.370217971724948 0.5
E 36.30777940154449 5.079334660364113 29.902782604511053 0.5
P 35.40599448042339 8.475368482697926 30.294877278796157 0.5
P 38.11794050996319 5.897677314225838 26.978123297439843 0.5
A 7.494569289341074 7.7937913856472605 5.013717954867429 2.5
E 5.599239867832029 9.286973077562962 5.668038074448697 0.5
E 9.389898710850119 6.300609693731559 4.3593978352861615 0.5
E 9.123313687525377 9.571318065433577 5.675224257203228 0.5
E 5.865824891156771 6.016264705860945 4.352211652531631 0.5
P 7.5646982373178835 6.8659943509599906 7.334121926825775 0.5
P 7.424440341364265 8.72158842033453 2.693313982909084 0.5
A 18.47719170779123 7.873107792009334 14.65514724944116 2.5
E 19.27736640879908 6.2688838563354246 16.397612747544585 0.5
E 17.677017006783384 9.477331727683243 12.912681751337736 0.5
E 19.099726901375373 9.79011212764347 16.134182174624463 0.5
E 17.85465651420709 5.956103456375198 13.176112324257856 0.5
P 20.762398565084254 7.912603885154611 13.64209755766385 0.5
P 16.19198485049821 7.833611698864057 15.66819694121847 0.5
A 16.199877931882337 7.122124100679334 11.444333904942111 2.5
E 15.83713054048485 9.494572473827526 10.744403160666392 0.5
E 16.562625323279825 4.749675727531141 12.14426464921783 0.5
E 13.734849697616603 6.716753756273554 11.347841997765135 0.5
E 18.66490616614807 7.527494445085114 11.540825812119087 0.5
P 16.404939225910802 6.445985357059073 9.04625420128993 0.5
P 15.994816637853873 7.798262844299594 13.842413608594292 0.5
A 11.358598208402322 36.999429866439485 38.207301616365385 2.5
E 9.216109774085204 38.28072116879168 38.07300378566813 0.5
E 13.50108664271944 35.71813856408729 38.34159944706264 0.5
E 12.556110099571761 39.07617276411568 38.916600007351335 0.5
E 10.161086317232883 34.92268696876329 37.498003225379435 0.5
P 10.88351023831555 36.45589372645975 40.60080530034223 0.5
P 11.833686178489094 37.54296600641922 35.81379793238854 0.5
A 29.02179922940615 36.191452224783454 25.237925198102186 2.5
E 28.37573919087023 35.069938512398934 23.0990438504016 0.5
E 29.667859267942067 37.312965937167974 27.376806545802772 0.5
E 29.69038857051779 38.2359509402891 23.963949807739926 0.5
E 28.353209888294508 34.14695350927781 26.511900588464446 0.5
P 26.701110814396525 37.09269136908993 25.46633992006832 0.5
P 31.342487644415773 35.29021308047698 25.00951047613605 0.5
A 35.582215907404596 20.715867382839235 34.16482134909211 2.5
E 37.26724280296472 22.550509756215973 33.95322805276652 0.5
E 33.897189011844475 18.881225009462497 34.3764146454177 0.5
E 33.77975333785943 22.411996406771056 34.51734797158333 0.5
E 37.38467847694976 19.019738358907414 33.81229472660089 0.5
P 35.179955983191405 20.800918520321282 31.698862457020844 0.5
P 35.984475831617786 20.630816245357188 36.63078024116337 0.5
A 9.71302649711767 7.179316687186057 24.971885033660772 2.5
E 7.250775636360118 6.809718265864545 25.197090952009304 0.5
E 12.175277357875224 7.54891510850757 24.74667911531224 0.5
E 10.139842103245636 5.321430881063296 26.589317804992262 0.5
E 9.286210890989706 9.037202493308818 23.354452262329282 0.5
P 9.784783985006936 5.547858033597775 23.07895251384724 0.5
P 9.641269009228406 8.81077534077434 26.864817553474303 0.5
70
Properties=species:S:1:pos:R:3:radius:R:1
A 5.382788538211897 19.620673661659893 32.510536848853484 2.5
E 6.291001478014625 19.71695075809412 30.183332522482782 0.5
E 4.474575598409169 19.524396565225665 34.83774117522419 0.5
E 4.66667594015234 17.255338746371454 32.133212736955954 0.5
E 6.098901136271454 21.986008576948333 32.88786096075101 0.5
P 7.599166665444864 18.816981270740918 33.34224986300179 0.5
P 3.1664104109789304 20.42436605257887 31.678823834705177 0.5
A 11.376497317121089 23.735204072572415 13.478149241413522 2.5
E 10.993383163819548 26.173549354782182 13.875258584372023 0.5
E 11.75961147042263 21.29685879036265 13.081039898455021 0.5
E 11.382527601279579 24.137981892447826 11.010815931240595 0.5
E 11.3704670329626 23.332426252697005 15.94548255158645 0.5
P 13.846960265884443 24.112354324516254 13.545754760756903 0.5
P 8.906034368357735 23.358053820628577 13.410543722070141 0.5
A 36.91511961680726 7.209035295919693 27.995891686360125 2.5
E 36.65456309372946 4.95534413722737 29.046123308200524 0.5
E 37.17567613988506 9.462726454612017 26.945660064519725 0.5
E 36.56614199351655 6.1966537527291266 25.736843605984387 0.5
E 37.26409724009797 8.22141683911026 30.254939766735863 0.5
P 34.45334689847524 7.591082115352858 28.204973754068067 0.5
P 39.37689233513928 6.8269884764865285 27.786809618652182 0.5
A 6.950634268925043 8.158112720996993 4.861427031510935 2.5
E 7.337536627804789 7.947645170477355 2.4005308583921994 0.5
E 6.5637319100452975 8.36858027151663 7.3223232046296705 0.5
E 7.739774998632627 10.528990874774738 4.782727040056713 0.5
E 6.161493539217459 5.787234567219247 4.940127022965157 0.5
P 4.610214760928933 8.922730396777887 4.4280722848269365 0.5
P 9.291053776921153 7.393495045216099 5.294781778194934 0.5
A 17.770918080588704 7.818218763037834 14.723941279521853 2.5
E 15.94378071620523 6.35715890680262 13.842537201828502 0.5
E 19.598055444972175 9.279278619273047 15.605345357215203 0.5
E 19.388545271929033 6.74600056053824 13.147987474339844 0.5
E 16.153290889248375 8.890436965537427 16.299895084703863 0.5
P 17.227915942919868 9.540325676887607 12.994925242649842 0.5
P 18.31392021825754 6.09611184918806 16.452957316393864 0.5
A 15.867966831466259 6.636171827392006 11.006254936711427 2.5
E 17.461690423103406 8.059039418647512 9.707989582010988 0.5
E 14.274243239829111 5.2133042361365 12.304520291411865 0.5
E 14.082695735497708 7.094789552074447 9.317327200984446 0.5
E 17.65323792743481 6.177554102709564 12.695182672438408 0.5
P 16.591052045918854 4.632395991535268 9.697809228140303 0.5
P 15.144881617013663 8.639947663248744 12.314700645282551 0.5
A 10.993987505836 37.399397312798264 38.61207920246542 2.5
E 8.741670505683603 36.58935568005248 39.333813699381814 0.5
E 13.246304505988396 38.20943894554405 37.89034470554902 0.5
E 10.568624618959491 39.588656850381895 39.74177344940275 0.5
E 11.419350392712508 35.21013777521463 37.48238495552808 0.5
P 11.992052907144304 36.50442511752415 40.72226645112219 0.5
P 9.995922104527695 38.29436950807238 36.501891953808645 0.5
A 29.38421489905343 36.081802640550144 25.260806000685882 2.5
E 28.758829367365475 33.6613823509835 25.282219982345623 0.5
E 30.009600430741383 38.50222293011679 25.23939201902614 0.5
E 26.96556656496389 36.70754986947182 25.353437752821748 0.5
E 31.80286323314297 35.45605541162847 25.168174248550017 0.5
P 29.47925790385803 36.079347573952894 27.75899750653301 0.5
P 29.289171894248827 36.084257707147394 22.762614494838754 0.5
A 35.06062634336536 20.658579644429313 34.067232008518985 2.5
E 35.04438020137296 22.600271074167463 32.49256682043862 0.5
E 35.076872485357754 18.716888214691163 35.64189719659935 0.5
E 34.421355298837916 19.1330092894665 32.19267402763714 0.5
E 35.6998973878928 22.184149999392126 35.94178998940083 0.5
P 37.477456621746434 20.26810623465543 33.56081131210108 0.5
P 32.64379606498428 21.049053054203196 34.57365270493689 0.5
A 9.688954597350074 7.535676344553356 24.593007564413924 2.5
E 8.040965924131914 7.519368122582452 26.47286590345027 0.5
E 11.336943270568234 7.55198456652426 22.713149225377578 0.5
E 9.675704797574404 5.035933265632216 24.559706180126593 0.5
E 9.702204397125744 10.035419423474497 24.626308948701254 0.5
P 7.809072213860554 7.567591564836089 22.945274684677724 0.5
P 11.568836980839595 7.503761124270623 26.240740444150124 0.5
70
Properties=species:S:1:pos:R:3:radius:R:1
A 5.23405065492705 19.492642958943275 32.90124784568646 2.5
E 4.749397472844541 17.62195418467815 31.315172562814602 0.5
E 5.718703837009559 21.3633317332084 34.48732312855832 0.5
E 3.4871129698914887 18.621178250820453 34.462900171622145 0.5
E 6.980988339962612 20.364107667066097 31.339595519750784 0.5
P 6.955480298479529 18.081589178133996 34.0394952748353 0.5
P 3.5126210113745717 20.903696739752554 31.763000416537622 0.5
A 11.448961223581206 24.29502290756821 13.208799905515942 2.5
E 10.978315955832773 24.79222270123664 10.804369536983401 0.5
E 11.919606491329638 23.79782311389978 15.613230274048483 0.5
E 10.255644743020916 22.109094848868057 12.990363875040094 0.5
E 12.642277704141495 26.480950966268363 13.42723593599179 0.5
P 13.594768486400648 23.188446707136034 12.559954543763332 0.5
P 9.303153960761763 25.401599108000386 13.857645267268552 0.5
A 36.9283119344801 7.187940836738535 27.63672515260108 2.5
E 37.93278421800445 6.4108460968061864 29.79013156960663 0.5
E 35.92383965095575 7.965035576670883 25.48331873559553 0.5
E 38.384759999490214 5.590544234947476 26.380905447980034 0.5
E 35.471863869469985 8.785337438529593 28.892544857222127 0.5
P 35.16201794265442 5.428836558489037 27.825822145397524 0.5
P 38.694605926305776 8.947045114988033 27.447628159804637 0.5
A 6.578545068501899 8.901881752488446 4.701672797443609 2.5
E 8.877672257243752 8.572699663827375 3.776657488115288 0.5
E 4.2794178797600475 9.231063841149517 5.6266881067719305 0.5
E 6.730733355084853 11.348201459673795 4.209373482328735 0.5
E 6.426356781918946 6.455562045303097 5.193972112558483 0.5
P 5.608569349520244 8.505448854332448 2.431873673766648 0.5
P 7.548520787483555 9.298314650644445 6.97147192112057 0.5
A 17.37687911326992 7.596220241859137 14.699092962998405 2.5
E 16.27464285016392 6.054553170266601 13.068651961102322 0.5
E 18.479115376375916 9.137887313451673 16.329533964894487 0.5
E 18.651887072825602 8.660708801803857 12.830612615545173 0.5
E 16.101871153714235 6.531731681914418 16.567573310451635 0.5
P 15.53041494536244 9.251553062205726 14.382165005065334 0.5
P 19.2233432811774 5.9408874215125484 15.016020920931476 0.5
A 15.659872447591482 6.3061358334531175 11.067826619775921 2.5
E 18.021545928994318 7.098844251035262 10.857798688456338 0.5
E 13.298198966188647 5.513427415870973 11.277854551095505 0.5
E 15.71976280073519 5.5008390798491655 8.70183628077692 0.5
E 15.599982094447775 7.111432587057069 13.433816958774923 0.5
P 16.477742555151536 4.07608863589637 11.847556049661929 0.5
P 14.84200234003143 8.536183031009866 10.288097189889914 0.5
A 10.403485987401945 37.41152664416697 38.80044224797428 2.5
E 11.679406368466061 35.26811899693871 38.633616473632785 0.5
E 9.127565606337829 39.55493429139523 38.96726802231578 0.5
E 8.55702956076879 36.41835789620209 37.43874679648484 0.5
E 12.2499424140351 38.40469539213185 40.16213769946372 0.5
P 9.302293068006641 36.59334604315927 40.890407476968385 0.5
P 11.504678906797249 38.229707245174666 36.71047701898018 0.5
A 29.824514011125157 36.36850032940713 24.971040509473983 2.5
E 30.118460142580247 33.91677031759066 24.580380016255233 0.5
E 29.530567879670066 38.82023034122359 25.361701002692733 0.5
E 29.42131848308339 35.933190159529 27.399607663614194 0.5
E 30.227709539166923 36.803810499285255 22.542473355333772 0.5
P 32.274213796398975 36.59104247184312 25.41763423633352 0.5
P 27.37481422585134 36.145958186971136 24.524446782614447 0.5
A 34.4962336816399 20.72574849606936 33.71850142098585 2.5
E 34.30048462646394 21.7472957698009 31.44515070564747 0.5
E 34.69198273681586 19.704201222337822 35.99185213632423 0.5
E 32.81832123804785 22.357896712053165 34.59639778884483 0.5
E 36.17414612523195 19.093600280085557 32.84060505312687 0.5
P 32.65333049941984 19.131216160682996 33.160671256535565 0.5
P 36.33913686385996 22.320280831455726 34.27633158543614 0.5
A 9.434967053815615 7.786154834133588 24.084738352963722 2.5
E 6.938962882228092 7.825794215206712 24.220355073501665 0.5
E 11.930971225403137 7.746515453060463 23.94912163242578 0.5
E 9.29840912631913 7.72524785415751 21.589213904629926 0.5
E 9.5715249813121 7.847061814109666 26.58026280129752 0.5
P 9.471231469696635 10.285098422784996 24.02176349383347 0.5
P 9.398702637934596 5.28721124548218 24.147713212093976 0.5
70
Properties=species:S:1:pos:R:3:radius:R:1
A 4.88319126759606 19.33539423767096 33.645226931121584 2.5
E 2.827775263150007 19.62393446169237 35.0387869720922 0.5
E 6.938607272042113 19.04685401364955 32.25166689015097 0.5
E 6.298883710657394 19.500202150394447 35.69916297164575 0.5
E 3.4674988245347254 19.170586324947475 31.591290890597424 0.5
P 4.7380018901355685 16.85757606616872 33.94412014557657 0.5
P 5.028380645056552 21.813212409173204 33.3463337166666 0.5
A 11.028396865647252 24.524083575163306 13.316788231812875 2.5
E 9.389860177988616 26.118742451222676 12.305719197472884 0.5
E 12.666933553305888 22.929424699103937 14.327857266152867 0.5
E 9.936466786664882 24.81594941899144 15.54669922371805 0.5
E 12.120326944629623 24.232217731335172 11.0868772399077 0.5
P 9.487979316471156 22.620960510773873 12.811578992013413 0.5
P 12.568814414823349 26.42720663955274 13.821997471612338 0.5
A 36.74811068923025 7.051120764941357 27.74183556570226 2.5
E 37.774238287994685 9.28160104229471 28.21302542487941 0.5
E 35.72198309046582 4.820640487588004 27.27064570652511 0.5
E 38.81336351373597 5.922799692738152 28.585412668813234 0.5
E 34.68285786472453 8.179441837144564 26.898258462591286 0.5
P 35.782816474016656 7.008117388798901 30.047558399807706 0.5
P 37.71340490444385 7.094124141083814 25.436112731596815 0.5
A 6.545734714124907 9.168427046102522 4.962985677810704 2.5
E 5.875463383532898 7.34237528089996 6.533422334981613 0.5
E 7.2160060447169165 10.994478811305084 3.3925490206397955 0.5
E 8.935312661291912 8.868012108893023 5.633558641710719 0.5
E 4.156156766957903 9.468841983312021 4.292412713910689 0.5
P 6.846822039993426 7.487568391634177 3.1370446585279548 0.5
P 6.244647388256388 10.849285700570867 6.788926697093453 0.5
A 17.108853367555586 7.325467995109189 14.652511029966247 2.5
E 16.17893282314658 7.908477176125651 12.406325802533049 0.5
E 18.03877391196459 6.742458814092726 16.898696257399447 0.5
E 16.31786122367061 9.520745687487759 15.549777591061568 0.5
E 17.89984551144056 5.130190302730618 13.755244468870925 0.5
P 14.927207381287221 6.281027404075842 15.284622287897632 0.5
P 19.29049935382395 8.369908586142536 14.020399772034862 0.5
A 15.771636916306045 5.71006681129722 11.013194182523373 2.5
E 17.025918253383935 3.681831684604767 11.763554494847078 0.5
E 14.517355579228155 7.738301937989673 10.262833870199668 0.5
E 13.609210399351312 4.523259192140082 11.419887228791884 0.5
E 17.93406343326078 6.896874430454358 10.606501136254861 0.5
P 15.74537123088383 6.5631494250943785 13.362994209718854 0.5
P 15.79790260172826 4.856984197500061 8.663394155327891 0.5
A 10.013936528375961 37.11767614860072 39.16828673492143 2.5
E 10.034925675677378 37.91301581731625 41.53830662240317 0.5
E 9.992947381074544 36.322336479885195 36.79826684743969 0.5
E 8.981241518586577 34.96200741341353 39.900839341147396 0.5
E 11.046631538165345 39.273344883787914 38.435734128695465 0.5
P 7.737294160227734 38.10282949478589 38.85784767157966 0.5
P 12.290578896524188 36.13252280241556 39.4787257982632 0.5
A 29.97324398109232 36.891103916215016 24.716812737694006 2.5
E 29.838338899956693 35.861208628831044 22.442803873131528 0.5
E 30.108149062227948 37.92099920359899 26.990821602256485 0.5
E 32.38452314545173 37.42681782565392 24.33114008017142 0.5
E 27.56196481673291 36.35539000677611 25.102485395216593 0.5
P 29.327075728536812 39.10522367455209 23.75237492988503 0.5
P 30.61941223364783 34.67698415787794 25.681250545502984 0.5
A 34.52009846207884 20.618805998492252 33.299711095623515 2.5
E 35.333963625086504 22.589913960781704 31.994967098725414 0.5
E 33.70623329907118 18.6476980362028 34.60445509252161 0.5
E 36.698475704427544 19.457629875096437 32.90430927408911 0.5
E 32.34172121973014 21.779982121888068 33.69511291715792 0.5
P 35.43786536410777 21.626974343291163 35.39525410450824 0.5
P 33.60233156004991 19.61063765369334 31.204168086738793 0.5
A 8.76525100020014 8.120066355403619 23.988839364564722 2.5
E 9.84797076457174 10.305463781376364 24.53816258671597 0.5
E 7.68253123582854 5.934668929430874 23.439516142413474 0.5
E 10.757401090532682 7.476565201850143 22.62236789286573 0.5
E 6.773100909867598 8.763567508957095 25.355310836263715 0.5
P 9.818368244115069 7.090530364808406 26.008987803329056 0.5
P 7.712133756285211 9.149602345998833 21.968690925800388 0.5
70
Properties=species:S:1:pos:R:3:radius:R:1
A 4.8569021787296265 19.786300176168364 34.58995771832043 2.5
E 5.171064972167354 21.848400320014182 35.96801603928216 0.5
E 4.542739385291899 17.724200032322546 33.21189939735869 0.5
E 5.686239834555966 18.389847204865163 36.49051504488765 0.5
E 4.027564522903287 21.182753147471566 32.6894003917532 0.5
P 2.5194889093548483 19.567983672690193 35.44951406461844 0.5
P 7.194315448104405 20.004616679646535 33.73040137202241 0.5
A 10.53242176176872 24.335626993552957 13.356333057284383 2.5
E 12.384573573353297 25.90242057606883 13.96023001590434 0.5
E 8.680269950184144 22.768833411037082 12.752436098664425 0.5
E 11.472124756500996 22.623327158853854 14.916777723967572 0.5
E 9.592718767036445 26.04792682825206 11.795888390601194 0.5
P 9.140842820948418 25.26470564785295 15.21383700225703 0.5
P 11.924000702589023 23.406548339252964 11.498829112311736 0.5
A 36.20925458416866 6.636014792832119 27.333819341971274 2.5
E 36.843936044554994 8.638373802603617 25.978187445094928 0.5
E 35.57457312378233 4.633655783060621 28.68945123884762 0.5
E 38.62587961253138 6.061922612276514 27.617265351848964 0.5
E 33.792629555805945 7.210106973387725 27.050373332093585 0.5
P 36.29353338418711 8.018395552323366 29.41514596690443 0.5
P 36.124975784150216 5.253634033340873 25.25249271703812 0.5
A 6.814310660633191 9.326031655980772 5.313523399107268 2.5
E 4.363133905257499 9.422849962418258 4.831487374059692 0.5
E 9.265487416008883 9.229213349543286 5.7955594241548445 0.5
E 6.327830197552791 8.493491810403354 7.620082343631817 0.5
E 7.300791123713591 10.15857150155819 3.006964454582719 0.5
P 6.8855094874926985 6.970717744617003 4.478402386325693 0.5
P 6.743111833773683 11.681345567344541 6.148644411888843 0.5
A 17.058129344131533 6.675372677056237 15.304330342453655 2.5
E 14.619225391225566 7.221387190385643 15.364460698644155 0.5
E 19.4970332970375 6.129358163726831 15.244199986263155 0.5
E 16.947535828890064 5.91924280676217 17.684674160820638 0.5
E 17.168722859373002 7.431502547350305 12.923986524086672 0.5
P 16.520061892143886 4.355860708885987 14.54252482486482 0.5
P 17.59619679611918 8.994884645226488 16.06613586004249 0.5
A 15.902024633994017 5.190996452228819 10.856207252285197 2.5
E 17.39654356033092 3.223832683797994 10.473219149342722 0.5
E 14.407505707657116 7.158160220659644 11.239195355227672 0.5
E 15.370928743731843 4.341566218846468 13.14671056683514 0.5
E 16.433120524256193 6.04042668561117 8.565703937735254 0.5
P 17.834471356201146 6.478915311004744 11.781904113596658 0.5
P 13.96957791178689 3.903077593452893 9.930510390973735 0.5
A 9.976855918886335 36.7955418174136 39.59672475542414 2.5
E 8.638567028919624 35.20846877131498 38.20382059743808 0.5
E 11.315144808853045 38.38261486351222 40.9896289134102 0.5
E 8.219482807447182 38.5469281086535 39.289664816579084 0.5
E 11.734229030325487 35.0441555261737 39.9037846942692 0.5
P 8.806119998971743 35.980774853674816 41.649900880508774 0.5
P 11.147591838800926 37.61030878115238 37.54354863033951 0.5
A 29.815330802667514 37.37264506465576 24.105095726578938 2.5
E 27.463763511443393 37.957819713821245 23.490521154358916 0.5
E 32.16689809389163 36.78747041549027 24.71967029879896 0.5
E 30.566965014408627 39.649380566495836 23.39691392336607 0.5
E 29.0636965909264 35.09590956281568 24.813277529791804 0.5
P 29.421405319123117 38.22355404018461 26.422589335799742 0.5
P 30.20925628621191 36.521736089126904 21.787602117358134 0.5
A 34.19702353042716 20.30922671759882 33.52784003205017 2.5
E 35.29830170992125 22.228882910862666 34.69064116338512 0.5
E 33.09574535093307 18.38957052433497 32.36503890071522 0.5
E 32.16937038851844 20.604932169341982 34.96003450973711 0.5
E 36.22467667233588 20.013521265855655 32.09564555436323 0.5
P 33.23483378433869 21.883227475372784 31.840619682762892 0.5
P 35.15921327651563 18.735225959824852 35.21506038133745 0.5
A 7.944808828113313 7.8949304279785455 24.143068687165957 2.5
E 10.127499953808378 8.822798507371148 23.352549694946156 0.5
E 5.762117702418248 6.967062348585943 24.93358767938576 0.5
E 8.680821375977814 5.599342920119977 23.48082739945157 0.5
E 7.208796280248811 10.190517935837114 24.805309974880345 0.5
P 8.91648005810931 7.549475914313018 26.42046109950734 0.5
P 6.973137598117317 8.240384941644072 21.865676274824576 0.5
70
Properties=species:S:1:pos:R:3:radius:R:1
A 5.502129490852996 20.828290199436474 34.800035480160695 2.5
E 5.89243347632508 21.297961156151974 37.224302790368846 0.5
E 5.111825505380911 20.358619242720973 32.37576816995254 0.5
E 3.8416696038965625 19.06158419331814 35.40964424958198 0.5
E 7.162589377809429 22.594996205554807 34.19042671073941 0.5
P 3.6744162303182533 22.533622741894 34.76390852482106 0.5
P 7.329842751387738 19.122957656978947 34.83616243550033 0.5
A 10.281042226738712 23.900251812319933 13.185090651512697 2.5
E 9.11104621111127 21.70865378411999 12.90579259171667 0.5
E 11.451038242366154 26.091849840519878 13.464388711308724 0.5
E 8.072054944626684 25.055172885766314 13.376225424844444 0.5
E 12.490029508850741 22.74533073887355 12.99395587818095 0.5
P 10.319571577667986 23.564014698218333 15.6620767419495 0.5
P 10.242512875809439 24.236488926421533 10.708104561075894 0.5
A 35.80408212436831 6.135939052654134 26.59877063435012 2.5
E 36.19259185167541 8.12954509536366 28.056369735015192 0.5
E 35.415572397061204 4.142333009944608 25.14117153368505 0.5
E 35.31131254917788 7.644371500436945 24.666981386983213 0.5
E 36.29685169955874 4.627506604871323 28.53055988171703 0.5
P 38.224048722806025 6.123035683023484 25.971399001665176 0.5
P 33.38411552593059 6.148842422284784 27.226142267035065 0.5
A 6.491116931622402 9.321636713299359 5.682996003659164 2.5
E 5.228258070050173 11.469453317130483 5.477883029775871 0.5
E 7.753975793194631 7.1738201094682355 5.888108977542457 0.5
E 4.346579899478046 8.046000378265026 5.529006203668806 0.5
E 8.635653963766758 10.597273048333692 5.8369858036495215 0.5
P 6.728073496227373 9.223474719396787 3.1961876456542493 0.5
P 6.254160367017431 9.419798707201931 8.169804361664077 0.5
A 17.20129862515433 6.055049741346634 16.093430075500482 2.5
E 16.922184346686013 4.94480450471322 18.31591758594687 0.5
E 17.480412903622646 7.165294977980048 13.870942565054094 0.5
E 17.694586940184674 3.8383426723398024 15.048022782397968 0.5
E 16.708010310123985 8.271756810353466 17.138837368602996 0.5
P 14.76639372807685 5.733234134592988 15.626875837024235 0.5
P 19.63620352223181 6.376865348100281 16.559984313976727 0.5
A 15.764147104964698 4.673815433006653 10.937217956022447 2.5
E 16.346992703350278 3.6814025979619682 8.717891983281515 0.5
E 15.181301506579116 5.666228268051338 13.15654392876338 0.5
E 18.110046963306566 5.502328304551822 11.182819821481438 0.5
E 13.41824724662283 3.845302561461484 10.691616090563457 0.5
P 15.12614642857359 6.813601213528598 9.812819472209018 0.5
P 16.402147781355804 2.5340296524847084 12.061616439835877 0.5
A 10.09105891293777 36.65256488390055 40.035973188171525 2.5
E 10.471527018269978 35.66603730102153 42.30136660853802 0.5
E 9.710590807605563 37.63909246677957 37.77057976780503 0.5
E 9.850553186100111 34.35657030853166 39.076511930365406 0.5
E 10.33156463977543 38.94855945926945 40.995434445977644 0.5
P 7.631912513030029 36.72448315759711 40.480300483895405 0.5
P 12.550205312845511 36.58064661020399 39.591645892447644 0.5
A 29.623287963870947 37.77708400099598 23.4453437628858 2.5
E 27.882175569119266 38.33358641703035 25.15087379480851 0.5
E 31.36440035862263 37.22058158496161 21.739813730963085 0.5
E 29.686654029242344 40.1713575556059 22.728797262332467 0.5
E 29.55992189849955 35.38281044638605 24.16189026343913 0.5
P 31.41619408818469 38.232890107409425 25.126928855218267 0.5
P 27.830381839557205 37.32127789458253 21.76375867055333 0.5
A 33.2132694810668 20.304644832390085 33.84555223758765 2.5
E 33.03945733308791 22.798283317902907 33.80610048497607 0.5
E 33.387081629045696 17.811006346877264 33.88500399019922 0.5
E 33.38390352504841 20.277080652730827 31.351534547386947 0.5
E 33.042635437085195 20.332209012049343 36.33956992778835 0.5
P 35.70137586147928 20.480733785958655 34.0138356894826 0.5
P 30.725163100654324 20.128555878821516 33.677268785692696 0.5
A 7.344229087844935 7.344598062832589 23.455072319186705 2.5
E 7.899063406219726 5.997605642422018 21.42338083214587 0.5
E 6.789394769470144 8.69159048324316 25.48676380622754 0.5
E 8.454890434197281 5.629480242800213 24.89548970214566 0.5
E 6.23356774149259 9.059715882864966 22.01465493622775 0.5
P 9.51415771636628 8.566883742519625 23.23729384375898 0.5
P 5.174300459323591 6.1223123831455535 23.67285079461443 0.5
70
Properties=species:S:1:pos:R:3:radius:R:1
A 5.91899047723646 21.99793925174421 34.68629282303089 2.5
E 3.659893867787473 21.324772902634244 35.51895696637033 0.5
E 8.178087086685448 22.671105600854176 33.85362867969145 0.5
E 4.850413274064763 23.29186575680727 32.833215123537904 0.5
E 6.987567680408157 20.70401274668115 36.539370522523875 0.5
P 5.850981139355563 24.02835823952048 36.1432669010569 0.5
P 5.986999815117358 19.96752026396794 33.22931874500488 0.5
A 10.093069190467107 23.753125132055768 12.83052610079592 2.5
E 11.30981038874893 25.4342616330169 11.436495641465942 0.5
E 8.876327992185283 22.071988631094637 14.224556560125897 0.5
E 11.686931166523554 24.16051719310369 14.712980804069398 0.5
E 8.49920721441066 23.345733071007846 10.948071397522442 0.5
P 8.600037088439484 25.558066065640897 13.70404963716096 0.5
P 11.58610129249473 21.94818419847064 11.95700256443088 0.5
A 35.45661137680518 5.263342005153957 26.23011582374317 2.5
E 34.83040928383678 3.490327266583291 27.87762596804365 0.5
E 36.082813469773576 7.036356743724623 24.58260567944269 0.5
E 37.33688055784195 5.978492128345999 27.714416368828804 0.5
E 33.576342195768405 4.548191881961915 24.745815278657535 0.5
P 36.98057290702997 3.652448142073774 25.07574923713158 0.5
P 33.93264984658038 6.874235868234139 27.38448241035476 0.5
A 6.65029109071385 9.526435086667256 6.239386962416756 2.5
E 5.917832430220976 7.695943656266328 7.776528931753692 0.5
E 7.382749751206724 11.356926517068183 4.70224499307982 0.5
E 4.2734109846743955 10.254286519548785 5.973542547080536 0.5
E 9.027171196753304 8.798583653785727 6.505231377752976 0.5
P 6.903165115046397 11.065763971240125 8.192978862721626 0.5
P 6.397417066381303 7.987106202094386 4.285795062111886 0.5
A 16.89188577641006 5.885463324019412 17.10849127180899 2.5
E 16.06256562748863 5.856461166594358 14.750231963450444 0.5
E 17.72120592533149 5.9144654814444655 19.466750580167535 0.5
E 15.883529773999445 3.6300182688063742 17.490833756133767 0.5
E 17.900241778820675 8.14090837923245 16.726148787484213 0.5
P 19.023890997556933 4.807443622074291 16.371994659988726 0.5
P 14.759880555263187 6.963483025964533 17.844987883629255 0.5
A 15.341935785264363 4.671562315008048 11.298902738849849 2.5
E 15.602823030487052 3.263869519031341 9.24942991945538 0.5
E 15.081048540041674 6.079255110984755 13.348375558244317 0.5
E 17.363186710950675 5.991698906937968 10.649453684603722 0.5
E 13.32068485957805 3.351425723078128 11.948351793095975 0.5
P 13.894012258038686 6.260788658485983 10.023019872555528 0.5
P 16.78985931249004 3.082335971530113 12.57478560514417 0.5
A 10.515020210587158 36.47352741511354 0.1323265049288317 2.5
E 9.639051153907245 38.48076178166448 1.3380165187682551 0.5
E 11.390989267267072 34.4662930485626 -1.073363508910592 0.5
E 11.46330838391018 35.600635558360054 2.274477140795762 0.5
E 9.566732037264137 37.34641927186702 -2.0098241309380986 0.5
P 8.374126062790276 35.26560771407945 0.5878506467465221 0.5
P 12.65591435838404 37.68144711614762 -0.32319763688885866 0.5
A 29.909942618855215 38.341808860144766 23.00359848182653 2.5
E 31.909912399411112 37.6570858877568 24.33824275201529 0.5
E 27.909972838299318 39.02653183253273 21.668954211637768 0.5
E 31.33326092981544 39.9103058229629 21.67544854175352 0.5
E 28.48662430789499 36.773311897326636 24.331748421899537 0.5
P 30.383530902651202 36.51945551111643 21.35898837340062 0.5
P 29.436354335059228 40.1641622091731 24.648208590252437 0.5
A 32.62299543630906 20.0195188258596 33.437174415423016 2.5
E 33.08218961590251 22.443420251808554 33.03239968460395 0.5
E 32.163801256715615 17.595617399910644 33.84194914624208 0.5
E 35.06636413388623 19.52515078515813 33.248628272443185 0.5
E 30.179626738731894 20.51388686656107 33.62572055840285 0.5
P 32.88584541847966 20.380492672024573 35.8969727342405 0.5
P 32.36014545413846 19.658544979694625 30.977376096605532 0.5
A 6.697551932020505 6.863635218865663 22.876674360539205 2.5
E 6.195824331665698 5.473900766263174 20.8600168372358 0.5
E 7.1992795323753125 8.253369671468151 24.89333188384261 0.5
E 9.138541027054918 6.747652941435605 22.3493031921487 0.5
E 4.256562836986092 6.979617496295721 23.40404552892971 0.5
P 6.497948192151646 8.93852949631118 21.496467099125702 0.5
P 6.897155671889364 4.788740941420146 24.256881621952708 0.5
70
Properties=species:S:1:pos:R:3:radius:R:1
A 6.154361732335631 23.13672744332313 34.540286431562414 2.5
E 5.514333611808644 24.068586708563814 32.31048771537273 0.5
E 6.794389852862618 22.20486817808245 36.7700851477521 0.5
E 8.392914244091312 24.234503506900584 34.35651927902944 0.5
E 3.9158092205799497 22.03895137974568 34.72405358409539 0.5
P 5.243731918938123 25.18038250815742 35.655735811377625 0.5
P 7.064991545733139 21.09307237848884 33.424837051747204 0.5
A 9.750212110102664 23.857748812789985 12.392220169235621 2.5
E 12.004356489075674 22.875449325296078 11.940644222562838 0.5
E 7.496067731129655 24.840048300283893 12.843796115908404 0.5
E 8.915914341255428 21.61312761228915 13.110289037213157 0.5
E 10.5845098789499 26.10237001329082 11.674151301258085 0.5
P 10.437802359917725 24.35450165186715 14.743912382351077 0.5
P 9.062621860287603 23.36099597371282 10.040527956120165 0.5
A 35.04698404924297 4.340249324523769 25.794676864053148 2.5
E 33.3308363620851 5.090776232939752 24.13891526418256 0.5
E 36.763131736400844 3.589722416107786 27.450438463923735 0.5
E 33.539606566356994 2.479957238492264 26.51379193046231 0.5
E 36.55436153212895 6.200541410555274 25.075561797643985 0.5
P 36.06317804644567 2.848263160247482 24.06513153488218 0.5
P 34.030790052040274 5.832235488800055 27.524222193224116 0.5
A 7.041726633040831 9.773557099208157 6.750140251796712 2.5
E 6.304392866460898 7.419430028718828 6.344647153643811 0.5
E 7.779060399620764 12.127684169697485 7.155633349949614 0.5
E 5.434299021337305 9.948591530681602 8.65684930693101 0.5
E 8.649154244744357 9.598522667734711 4.843431196662415 0.5
P 8.808790692375807 8.95048439051994 8.315399312277915 0.5
P 5.274662573705855 10.596629807896374 5.184881191315511 0.5
A 16.7789260619721 5.80464478231338 17.684300458142744 2.5
E 16.79061169465408 3.545398060751746 18.754659134990824 0.5
E 16.767240429290123 8.063891503875015 16.613941781294663 0.5
E 15.281415931036681 4.941229441969317 15.878205954024404 0.5
E 18.27643619290752 6.668060122657443 19.49039496226108 0.5
P 14.777095186564104 6.437351824453498 19.04163422147868 0.5
P 18.780756937380097 5.171937740173262 16.326966694806806 0.5
A 15.177350827517953 4.804526272815964 11.67596853179171 2.5
E 15.563859994328071 4.55527145755048 9.218636095787163 0.5
E 14.790841660707835 5.053781088081448 14.133300967796258 0.5
E 16.680655043893488 6.8017567264299 11.709835155271689 0.5
E 13.674046611142419 2.8072958192020274 11.642101908311732 0.5
P 13.217583724773188 6.287409461818174 11.21730705447391 0.5
P 17.13711793026272 3.321643083813753 12.134630009109511 0.5
A 10.651107541969797 36.40395048763301 0.38083111493686395 2.5
E 8.614419438712442 36.75332042060742 -1.026237547204189 0.5
E 12.687795645227151 36.0545805546586 1.7878997770779168 0.5
E 9.479219508612633 34.57872646698499 1.623906217945425 0.5
E 11.82299557532696 38.229174508281034 -0.862243988071697 0.5
P 11.504676524138336 34.73167720722131 -1.2699026819840213 0.5
P 9.797538559801257 38.07622376804471 2.0315649118577492 0.5
A 30.408076023961502 38.89791490683606 22.644582091601492 2.5
E 29.824286176632942 38.312798354118335 20.285169445646545 0.5
E 30.991865871290063 39.48303145955378 25.00399473755644 0.5
E 30.207507245837405 41.327733527667526 22.091632152544836 0.5
E 30.6086448020856 36.46809628600459 23.19753203065815 0.5
P 27.98548204654841 38.83774772644106 23.258925913093506 0.5
P 32.8306700013746 38.958082087231055 22.03023827010948 0.5
A 32.36906532708708 19.811596258230505 32.58011192194741 2.5
E 32.63726116126241 22.296709290995164 32.62790532016959 0.5
E 32.10086949291175 17.326483225465847 32.53231852372524 0.5
E 34.85405199708486 19.544556899642075 32.52068776105811 0.5
E 29.884078657089297 20.078635616818936 32.63953608283671 0.5
P 32.423030542399516 19.757714950272153 35.07894856330442 0.5
P 32.31510011177464 19.865477566188858 30.081275280590408 0.5
A 6.659624688354974 5.9828720944621105 22.751238311900906 2.5
E 7.323998150061369 5.7743504359352125 20.35017050333955 0.5
E 5.995251226648579 6.191393752989009 25.15230612046226 0.5
E 8.931002038691284 6.869855297691282 23.3026961340167 0.5
E 4.3882473380186635 5.095888891232939 22.199780489785113 0.5
P 5.853738321822051 8.31091408616215 22.32607052252611 0.5
P 7.465511054887897 3.654830102762072 23.176406101275703 0.5
70
Properties=species:S:1:pos:R:3:radius:R:1
A 6.205651585072043 24.0333939038999 34.652943144713355 2.5
E 8.69977205532675 23.912948647244484 34.77482841866692 0.5
E 3.711531114817336 24.153839160555314 34.53105787075979 0.5
E 6.231029180452258 26.051655602355655 36.128062019313056 0.5
E 6.180273989691828 22.015132205444143 33.17782427011365 0.5
P 6.375118565661902 25.50380631431297 32.63820537373817 0.5
P 6.036184604482184 22.562981493486827 36.66768091568854 0.5
A 9.636315427996838 23.71712372622102 12.308797942720766 2.5
E 9.699595604456546 21.37552472334617 13.182244981185411 0.5
E 9.57303525153713 26.058722729095866 11.43535090425612 0.5
E 7.273442568585526 23.945694528374187 13.092754088599078 0.5
E 11.999188287408149 23.48855292406785 11.524841796842454 0.5
P 10.450457595879419 24.562505000048684 14.516172635050292 0.5
P 8.822173260114257 22.871742452393352 10.101423250391239 0.5
A 34.45505172592924 3.564912676543358 25.732790125282314 2.5
E 36.95394824340757 3.5132023973017454 25.78610280627928 0.5
E 31.95615520845091 3.6166229557849703 25.679477444285347 0.5
E 34.46924583356957 2.1359605825102266 23.681474830095766 0.5
E 34.4408576182889 4.993864770576489 27.784105420468862 0.5
P 34.38214958437891 1.5142001272135568 27.16081789734359 0.5
P 34.52795386747957 5.615625225873159 24.304762353221037 0.5
A 7.2650442277679534 10.560185529771532 7.2111565693490505 2.5
E 6.51796565827892 10.328032254003592 4.8367137994428955 0.5
E 8.012122797256987 10.792338805539472 9.585599339255205 0.5
E 5.319986764155032 9.178643040617484 7.958211998286478 0.5
E 9.210101691380874 11.94172801892558 6.464101140411623 0.5
P 8.646574203647257 8.489570836688479 6.978928839448673 0.5
P 5.883514251888651 12.630800222854585 7.443384299249428 0.5
A 16.383832129615403 5.989161112359227 17.793542163597056 2.5
E 17.31985555466859 6.989895198541577 15.702515756182114 0.5
E 15.447808704562219 4.988427026176877 19.884568571011997 0.5
E 14.949424132872554 4.467686283153521 16.423291076031063 0.5
E 17.81824012635825 7.510635941564933 19.16379325116305 0.5
P 18.204912536031888 4.276372265814389 17.789012205569946 0.5
P 14.562751723198918 7.701949958904065 17.798072121624166 0.5
A 15.012335017108086 5.324930572885521 11.618408551675305 2.5
E 16.15509931366145 6.919748236395963 10.069006608124411 0.5
E 13.869570720554725 3.7301129093750798 13.167810495226199 0.5
E 16.229533430773635 6.334097452863082 13.55490286618483 0.5
E 13.795136603442536 4.315763692907961 9.68191423716578 0.5
P 13.151550831799574 6.964485033253564 11.933596411838552 0.5
P 16.873119202416596 3.6853761125174787 11.303220691512058 0.5
A 10.472405557285729 35.942153488337325 0.583331472062321 2.5
E 11.664696481901858 35.94699002444209 -1.6140348967966358 0.5
E 9.2801146326696 35.937316952232564 2.780697840921278 0.5
E 11.170297260557732 33.57076624661244 0.9567879223807372 0.5
E 9.774513854013726 38.31354073006221 0.20987502174390493 0.5
P 12.556005692047194 36.73367048606943 1.7156350182543512 0.5
P 8.388805422524264 35.15063649060522 -0.548972074129709 0.5
A 30.556647913300857 39.06115529306252 22.07599276899866 2.5
E 31.772362339480843 41.24124059485106 21.937188911329613 0.5
E 29.34093348712087 36.88106999127398 22.214796626667706 0.5
E 32.73753295010601 37.85903930646585 22.296577471569933 0.5
E 28.375762876495703 40.263271279659186 21.855408066427387 0.5
P 30.43103386067295 39.28950859760322 24.562370833189238 0.5
P 30.682261965928763 38.832801988521815 19.58961470480808 0.5
A 32.74148117965832 19.516860685722428 31.62668366343907 2.5
E 33.15929089857943 21.882816107733877 30.935532464475276 0.5
E 32.323671460737216 17.15090526371098 32.31783486240286 0.5
E 34.751342411689706 18.784040044708867 30.333071767976932 0.5
E 30.731619947626935 20.24968132673599 32.92029555890121 0.5
P 34.16832835674203 19.85631443685577 33.65125232962186 0.5
P 31.314634002574614 19.177406934589087 29.60211499725628 0.5
A 6.589194390398481 5.385953622594514 23.054519158675706 2.5
E 8.411375848866555 3.952829302209497 22.118672261613945 0.5
E 4.767012931930407 6.819077942979532 23.990366055737468 0.5
E 8.138722744741749 7.34778907509207 23.067307294346865 0.5
E 5.0396660360552135 3.424118170096959 23.041731023004548 0.5
P 5.862134137389562 5.975323065006217 20.736324376339695 0.5
P 7.316254643407399 4.796584180182812 25.372713941011718 0.5
70
Properties=species:S:1:pos:R:3:radius:R:1
A 5.98374290336747 24.70336537698496 34.7575025322833 2.5
E 7.878298214575697 26.32259214951199 34.95439039860711 0.5
E 4.089187592159243 23.084138604457927 34.560614665959484 0.5
E 5.037175615013408 26.04050247226762 32.86909718463194 0.5
E 6.930310191721532 23.3662282817023 36.645907879934654 0.5
P 7.312151929756514 23.346837070036702 33.13110761989044 0.5
P 4.6553338769784265 26.059893683933215 36.38389744467615 0.5
A 9.683199951650852 23.74362661000747 12.313216484890713 2.5
E 9.63346940504202 22.399278334434726 14.420407645345472 0.5
E 9.732930498259686 25.087974885580216 10.206025324435954 0.5
E 8.775823739142414 25.717164599146084 13.550882115988493 0.5
E 10.590576164159291 21.770088620868858 11.075550853792933 0.5
P 12.012190136625433 24.48381274834796 12.840406392704553 0.5
P 7.354209766676272 23.00344047166698 11.786026577076873 0.5
A 34.22638042676441 3.2105074237963764 25.828920546721672 2.5
E 33.34394038383859 0.9516837020219602 26.43638656600981 0.5
E 35.10882046969022 5.469331145570793 25.221454527433536 0.5
E 36.44335834456389 2.1958009911678777 25.276308777419448 0.5
E 32.009402508964925 4.225213856424875 26.381532316023897 0.5
P 33.48051952644178 2.866870624935969 23.467648586985057 0.5
P 34.97224132708703 3.554144222656784 28.19019250645829 0.5
A 7.352538123514084 10.963152393246085 7.567077029457739 2.5
E 6.870424081964963 13.295992679350302 6.808511112434318 0.5
E 7.834652165063206 8.630312107141869 8.32564294648116 0.5
E 5.920359834404735 10.06783278139323 5.7239090661850796 0.5
E 8.784716412623434 11.85847200509894 9.410244992730398 0.5
P 9.344128291983543 10.884038600769271 6.0580012829509755 0.5
P 5.360947955044626 11.0422661857229 9.076152775964502 0.5
A 16.249801118854563 5.647807783880121 17.667197954312932 2.5
E 16.363690548057306 8.102106479354097 18.129201321522252 0.5
E 16.13591168965182 3.1935090884061452 17.205194587103612 0.5
E 14.244746298776263 6.013386838659617 16.219404072854164 0.5
E 18.254855938932863 5.282228729100625 19.1149918357717 0.5
P 17.73868807440182 5.952389247701225 15.682142346653555 0.5
P 14.760914163307305 5.343226320059017 19.652253561972312 0.5
A 14.586366732235229 5.589552993397639 11.475889238834423 2.5
E 16.269852268993077 4.290256575373465 10.161467211615603 0.5
E 12.902881195477383 6.8888494114218135 12.790311266053243 0.5
E 12.872470386580245 3.8266617509719847 11.023369864961033 0.5
E 16.30026307789021 7.3524442358232935 11.928408612707813 0.5
P 15.278057243865232 4.38371582135084 13.553753755744161 0.5
P 13.894676220605225 6.795390165444438 9.398024721924685 0.5
A 10.51080867803902 36.05546459185044 1.1828112132528146 2.5
E 11.1872901574314 38.28520499580406 0.2769246094155706 0.5
E 9.834327198646639 33.82572418789682 2.0886978170900585 0.5
E 12.056982901252244 36.37394729399414 3.121345205707464 0.5
E 8.964634454825795 35.73698188970673 -0.7557227792018353 0.5
P 8.666433965702609 37.14028093548097 2.475659008270464 0.5
P 12.35518339037543 34.9706482482199 -0.110036581764835 0.5
A 30.65291432750156 39.100528204815696 21.087282644873337 2.5
E 31.10398062069831 37.33543880832797 22.799298597354134 0.5
E 30.20184803430481 40.86561760130342 19.37526669239254 0.5
E 28.444099154068542 38.04478944706157 20.580773804883137 0.5
E 32.86172950093458 40.15626696256982 21.593791484863537 0.5
P 29.572324336453065 40.52175130404493 22.837268408662126 0.5
P 31.733504318550054 37.67930510558646 19.337296881084548 0.5
A 33.187110161105295 19.384734687254998 30.86290651742816 2.5
E 31.31826621662874 20.454996826890884 29.59327615245784 0.5
E 35.055954105581854 18.31447254761911 32.13253688239848 0.5
E 34.63106543614994 19.48822233888639 28.824700573557443 0.5
E 31.743154886060648 19.281247035623604 32.90111246129888 0.5
P 34.007119596943326 21.64168600671698 31.55843169074309 0.5
P 32.367100725267264 17.127783367793015 30.16738134411323 0.5
A 6.606778889210238 4.568309796746887 23.43745505419786 2.5
E 6.276147385783787 3.0753916874955385 25.415301946152717 0.5
E 6.937410392636689 6.061227905998236 21.459608162243 0.5
E 8.5859636130137 3.2085141682936578 22.741909456909916 0.5
E 4.627594165406776 5.928105425200117 24.1330006514858 0.5
P 5.115634819038238 3.094487769528877 22.0757142587151 0.5
P 8.097922959382238 6.042131823964898 24.79919584968062 0.5
70
Properties=species:S:1:pos:R:3:radius:R:1
A 5.911150925155026 25.309726426264874 35.229188620657276 2.5
E 6.311534875667686 27.55875853563981 34.213537468354616 0.5
E 5.510766974642365 23.060694316889936 36.244839772959935 0.5
E 7.420148532121181 24.272449179649332 33.5271362901382 0.5
E 4.40215331818887 26.347003672880415 36.93124095117635 0.5
P 7.863743794737321 25.650182715170686 36.75282591378257 0.5
P 3.958558055572731 24.96927013735906 33.70555132753198 0.5
A 10.061413168378966 23.811729262024677 12.869763400226034 2.5
E 9.211115152267357 22.271636267114932 14.646025444752881 0.5
E 10.911711184490574 25.351822256934422 11.093501355699187 0.5
E 8.701884078158878 25.67485321575206 13.834361651257364 0.5
E 11.420942258599053 21.948605308297296 11.905165149194705 0.5
P 11.979400117407064 24.449602838901228 14.340968132165376 0.5
P 8.143426219350868 23.173855685148126 11.398558668286693 0.5
A 34.56187011004851 2.6951568837452204 25.86094583233597 2.5
E 33.969206985686846 1.9783726830848611 23.5403918401382 0.5
E 35.154533234410174 3.41194108440558 28.181499824533745 0.5
E 35.53782005700427 0.43756003056953086 26.309028580907874 0.5
E 33.58592016309275 4.95275373692091 25.41286308376407 0.5
P 36.78589172011852 3.494829853286137 25.045929869469788 0.5
P 32.3378484999785 1.8954839142043036 26.675961795202156 0.5
A 7.226221705573406 11.445595052230091 7.433518513747174 2.5
E 5.7198712750776455 10.877658934054661 9.346201693527972 0.5
E 8.732572136069166 12.013531170405521 5.520835333966376 0.5
E 6.0438800777122355 13.630145633892138 7.151017131120576 0.5
E 8.408563333434575 9.261044470568045 7.716019896373772 0.5
P 8.833385871292377 12.520391461710123 9.01839580319169 0.5
P 5.619057539854435 10.37079864275006 5.848641224302657 0.5
A 15.87907935060697 5.335102894568018 17.818602740412178 2.5
E 14.57471666270802 6.834065414110311 19.33575446104752 0.5
E 17.18344203850592 3.8361403750257246 16.301451019776835 0.5
E 15.954961946681298 7.144989778945547 16.095654308980304 0.5
E 15.803196754532642 3.525216010190489 19.541551171844052 0.5
P 18.01048259965028 6.187992588941185 18.80840037589228 0.5
P 13.747676101563659 4.482213200194851 16.828805104932076 0.5
A 14.278767015524396 5.526550190632537 11.845172875074002 2.5
E 12.852707724179567 7.554689502127248 11.52422766052756 0.5
E 15.704826306869226 3.498410879137825 12.166118089620445 0.5
E 13.679396612247736 5.489142480059167 14.271972368824374 0.5
E 14.878137418801057 5.563957901205907 9.418373381323631 0.5
P 12.314814364046647 4.065300179046279 11.33759195896889 0.5
P 16.242719667002145 6.987800202218795 12.352753791179115 0.5
A 10.238527629523048 36.18950303261318 1.3910185596207008 2.5
E 10.650945398551213 38.590137165353475 0.8281088470485805 0.5
E 9.826109860494883 33.78886889987289 1.953928272192821 0.5
E 11.78825147438999 36.381061504179186 3.3433662122220644 0.5
E 8.688803784656107 35.99794456104718 -0.5613290929806629 0.5
P 8.320646614330347 36.860518019546774 2.847545695952136 0.5
P 12.15640864471575 35.51848804567959 -0.0655085767107344 0.5
A 30.83015076394158 39.48334189692038 20.249706405705258 2.5
E 29.028585112732188 40.44748595176175 18.80929415711216 0.5
E 32.631716415150976 38.51919784207901 21.690118654298356 0.5
E 31.49843840471863 37.95279195605069 18.38938156641268 0.5
E 30.161863123164533 41.01389183779007 22.110031244997835 0.5
P 32.42944837025744 41.208984710488224 19.404482147644394 0.5
P 29.230853157625724 37.757699083352534 21.09493066376612 0.5
A 33.54767536281738 19.663382696173116 30.206371187569562 2.5
E 32.07477121516533 19.595496731362953 32.22526813085578 0.5
E 35.02057951046943 19.73126866098328 28.187474244283344 0.5
E 31.64516402328781 20.54982402219977 28.84818402135396 0.5
E 35.450186702346954 18.776941370146464 31.564558353785166 0.5
P 34.226648097756005 21.999964231513403 30.78028995701003 0.5
P 32.868702627878754 17.32680116083283 29.632452418129095 0.5
A 6.736276247787081 3.581382891494331 23.514624962723197 2.5
E 6.997541134857649 1.949662380957238 25.390585739040386 0.5
E 6.475011360716513 5.2131034020314235 21.638664186406007 0.5
E 8.131494987130077 2.1163059057301137 22.045981338430977 0.5
E 5.341057508444084 5.046459877258548 24.983268587015417 0.5
P 4.678339094185407 2.3809506354795995 22.75709141854892 0.5
P 8.794213401388754 4.781815147509063 24.272158506897473 0.5
70
Properties=species:S:1:pos:R:3:radius:R:1
A 6.231456104483391 25.542756147499706 35.86665879623989 2.5
E 6.059621348104284 23.707492390322624 34.177789423525205 0.5
E 6.403290860862499 27.378019904676787 37.555528168954574 0.5
E 8.679970125352595 25.740764406594828 35.402361672688244 0.5
E 3.7829420836141883 25.344747888404584 36.330955919791535 0.5
P 5.7568489973849575 27.228757236148127 34.082801060048666 0.5
P 6.706063211581825 23.856755058851284 37.65051653243111 0.5
A 10.659697727112608 23.9099649119423 13.14749190096309 2.5
E 12.230481961584406 21.995904581110786 12.802513729664994 0.5
E 9.08891349264081 25.824025242773814 13.492470072261185 0.5
E 9.973331480813806 23.77932439201593 10.747109758366783 0.5
E 11.34606397341141 24.04060543186867 15.547874043559396 0.5
P 8.83993448298531 22.307059392427597 13.755073690381405 0.5
P 12.479460971239906 25.512870431457003 12.539910111544774 0.5
A 35.14902993758281 1.8370786892294093 26.057894856618468 2.5
E 34.8213993984883 2.44238863133429 23.654510138384374 0.5
E 35.47666047667732 1.2317687471245284 28.46127957485256 0.5
E 33.125842459161014 0.3714718344974177 25.964572970014082 0.5
E 37.17221741600461 3.3026855439614007 26.151216743222854 0.5
P 36.580592250934714 -0.09569041786825982 25.375961632879537 0.5
P 33.717467624230906 3.7698477963270784 26.739828080357398 0.5
A 7.609257160301623 11.577957700577453 7.3432054407030805 2.5
E 5.241666858978602 11.896599838163281 8.080079482338009 0.5
E 9.976847461624644 11.259315562991626 6.606331399068152 0.5
E 8.41185992897753 12.570500561255814 9.492783879706803 0.5
E 6.806654391625717 10.585414839899093 5.193627001699359 0.5
P 7.627830280514186 9.305662416537405 8.385476605676198 0.5
P 7.59068404008906 13.850252984617502 6.300934275729962 0.5
A 16.08592822379225 5.660086146802105 17.39287654129178 2.5
E 15.273086958443576 7.558735017704811 15.984181562821078 0.5
E 16.898769489140925 3.7614372758993992 18.801571519762483 0.5
E 18.183495615883086 6.926460273001653 17.889371866679557 0.5
E 13.988360831701415 4.393712020602558 16.896381215904004 0.5
P 14.995286159233054 6.680590452287653 19.39763858440359 0.5
P 17.17657028835145 4.6395818413165575 15.38811449817997 0.5
A 13.697015210377721 5.696007124537305 12.186094652710118 2.5
E 15.420529007589277 5.696586035034199 13.997033595823776 0.5
E 11.973501413166165 5.695428214040411 10.37515570959646 0.5
E 12.587571825706773 3.72042851559943 13.242609932352837 0.5
E 14.80645859504867 7.67158573347518 11.129579373067399 0.5
P 12.265709664020534 7.228028281300912 13.547812541333684 0.5
P 15.128320756734908 4.163985967773698 10.824376764086551 0.5
A 9.85084619266667 36.13547080894275 1.4549872124795435 2.5
E 7.4304971528918635 35.59896682750191 1.7775922396493653 0.5
E 12.271195232441478 36.67197479038359 1.1323821853097218 0.5
E 10.308629904939075 35.497445419339385 3.8284567562056715 0.5
E 9.393062480394267 36.77349619854611 -0.9184823312465842 0.5
P 10.277864457422652 33.778547585730855 0.7390484431387664 0.5
P 9.42382792791069 38.49239403215464 2.1709259818203206 0.5
A 31.187448864571895 40.19035287057687 19.63324763946962 2.5
E 33.27335714789848 39.96049544030573 20.991979472944998 0.5
E 29.101540581245313 40.420210300848005 18.27451580599424 0.5
E 31.037337720497135 37.70214409623034 19.442764727663384 0.5
E 31.337560008646655 42.67856164492339 19.823730551275855 0.5
P 29.81761191150968 40.113005233154865 21.723119421424464 0.5
P 32.55728581763411 40.26770050799887 17.543375857514775 0.5
A 33.85921545730708 19.989105059892182 29.62756189093305 2.5
E 34.30651342979673 19.33581586391101 31.998877506834912 0.5
E 33.41191748481743 20.642394255873356 27.256246275031184 0.5
E 31.400687340149197 19.943449361830098 30.078732650599168 0.5
E 36.31774357446496 20.034760757954267 29.17639113126693 0.5
P 33.93380782253227 22.401806612850578 30.278182514185474 0.5
P 33.78462309208189 17.576403506933787 28.976941267680623 0.5
A 6.773412459587746 2.9990764363946973 23.836863117097568 2.5
E 6.027588521031119 4.607616914685053 25.5993455091746 0.5
E 7.519236398144373 1.3905359581043413 22.074380725020536 0.5
E 9.046225781193986 2.9156090259648115 24.874819183860318 0.5
E 4.5005991379815065 3.082543846824583 22.79890705033482 0.5
P 6.046730783880045 1.08710605976701 25.27432721094238 0.5
P 7.5000941352954476 4.911046813022384 22.399399023252755 0.5
70
Properties=species:S:1:pos:R:3:radius:R:1
A 6.872626462798733 26.024881153477104 36.45533870788192 2.5
E 6.82391304150712 24.012956406315823 37.9385062015748 0.5
E 6.921339884090346 28.036805900638385 34.97217121418904 0.5
E 9.284723805164226 25.598128705101235 35.955670058915764 0.5
E 4.460529120433239 26.451633601852972 36.95500735684808 0.5
P 6.2173300309905555 24.603599633310754 34.50583994489328 0.5
P 7.5279228946069106 27.446162673643453 38.40483747087056 0.5
A 11.43462942094192 23.94527572482668 13.320847311991958 2.5
E 11.685175077814423 21.470655470112327 13.068892020759506 0.5
E 11.184083764069419 26.41989597954103 13.57280260322441 0.5
E 12.97470796243704 23.900747797944224 15.289647796996482 0.5
E 9.8945508794468 23.989803651709135 11.352046826987435 0.5
P 13.387930462729598 24.297797864110517 11.800866002414054 0.5
P 9.481328379154244 23.59275358554284 14.840828621569862 0.5
A 36.048772486905364 1.3174990211011277 26.297569057568612 2.5
E 34.01328656749109 2.434512047169293 25.37070392635484 0.5
E 38.084258406319634 0.2004859950329625 27.224434188782386 0.5
E 34.711963151936516 0.49672354263314844 28.244173387134705 0.5
E 37.38558182187421 2.138274499569107 24.35096472800252 0.5
P 35.48331879843385 -0.763032044165465 25.032004909587855 0.5
P 36.61422617537688 3.3980300863677204 27.56313320554937 0.5
A 8.224967285730811 11.585604091744834 7.002253059582422 2.5
E 9.51450742241391 13.260151132415395 8.337535218702461 0.5
E 6.935427149047712 9.911057051074273 5.666970900462383 0.5
E 6.502672152428209 11.469897638727351 8.810653316862807 0.5
E 9.947262419033413 11.701310544762316 5.193852802302037 0.5
P 6.951866461096334 13.438305963420644 5.908310618224816 0.5
P 9.498068110365287 9.732902220069024 8.096195500940027 0.5
A 16.34116681934261 5.821385794831901 16.66721453391941 2.5
E 18.053818598868045 6.06268353575338 18.47237360788403 0.5
E 14.628515039817179 5.580088053910422 14.862055459954787 0.5
E 14.662219479042246 5.070443594638541 18.36050176308915 0.5
E 18.020114159642976 6.572327995025261 14.973927304749667 0.5
P 15.635504215409997 8.19369715976636 17.019605051975866 0.5
P 17.046829423275224 3.449074429897441 16.314824015862953 0.5
A 13.175549118633405 5.822986243366213 12.997258938238664 2.5
E 15.335649908420207 5.366594970549722 14.170149207642122 0.5
E 11.015448328846604 6.279377516182704 11.824368668835206 0.5
E 13.817225458364701 4.218094347835816 11.19099941129027 0.5
E 12.53387277890211 7.4278781388966095 14.803518465187057 0.5
P 12.092859849732386 3.961258817087132 14.266808046091048 0.5
P 14.258238387534425 7.684713669645293 11.72770983038628 0.5
A 10.11814565100882 36.09250643197601 1.864302700368462 2.5
E 10.528542656862683 33.91098142479206 0.7142927262320371 0.5
E 9.707748645154958 38.27403143915996 3.014312674504887 0.5
E 12.289680794931344 35.85966060246301 3.080944775254827 0.5
E 7.946610507086296 36.325352261489016 0.6476606254820971 0.5
P 11.286909706022312 37.29114376774754 0.007623104692633387 0.5
P 8.949381595995328 34.89386909620448 3.7209822960442906 0.5
A 31.127464590135382 0.7193604417512137 19.44085344048885 2.5
E 30.300944882674095 -1.2748067522638848 20.70186984620788 0.5
E 31.95398429759667 2.7135276357663125 18.17983703476982 0.5
E 33.48688396050254 0.01947465127735204 19.880512530045205 0.5
E 28.76804521976823 1.4192462322250754 19.001194350932497 0.5
P 31.125139097746047 -0.6161009326835581 17.32743499884545 0.5
P 31.129790082524718 2.0548218161859855 21.55427188213225 0.5
A 33.90430673384751 19.971314816354372 29.421700725156636 2.5
E 34.50488029211869 22.30421582751999 30.090194758942324 0.5
E 33.30373317557633 17.638413805188755 28.75320669137095 0.5
E 31.57855629057407 20.327970601129486 30.266497462128886 0.5
E 36.230057177120955 19.614659031579258 28.576903988184387 0.5
P 33.2113447747776 20.79615996745124 27.165723287327722 0.5
P 34.597268692917424 19.146469665257506 31.67767816298555 0.5
A 6.741467690091092 2.64569632533481 25.019020789356386 2.5
E 4.590982564264863 3.69758752400004 24.298646838012438 0.5
E 8.891952815917321 1.5938051266695792 25.739394740700334 0.5
E 7.957517965335818 4.76234558243042 24.479560271321976 0.5
E 5.525417414846366 0.5290470682391999 25.558481307390796 0.5
P 6.358537602893051 3.460141430060322 27.35141091961146 0.5
P 7.124397777289133 1.8312512206092975 22.68663065910131 0.5
70
Properties=species:S:1:pos:R:3:radius:R:1
A 7.273403228066294 25.99636986622133 37.21936633846501 2.5
E 9.582060977771174 26.162436281198584 38.16409981439638 0.5
E 4.964745478361414 25.830303451244074 36.274632862533636 0.5
E 8.219269729461413 25.192851320138512 35.04918327990965 0.5
E 6.327536726671175 26.799888412304146 39.38954939702037 0.5
P 7.113916688611318 23.6348491926047 38.024216729416715 0.5
P 7.43288976752127 28.357890539837957 36.4145159475133 0.5
A 11.966936170288607 24.134497460249147 13.637900518320365 2.5
E 13.160534707382412 25.769810705618507 12.171246802623536 0.5
E 10.773337633194801 22.499184214879786 15.104554234017193 0.5
E 11.332525330969158 22.793068635118708 11.625913541706595 0.5
E 12.601347009608055 25.475926285379586 15.649887494934134 0.5
P 14.06999237952358 22.801711169567493 13.863367332218827 0.5
P 9.863879961053634 25.4672837509308 13.412433704421902 0.5
A 36.41136829907843 0.6486291151088986 26.593355089153476 2.5
E 36.396702470910235 2.923787693583625 27.62942379164214 0.5
E 36.42603412724663 -1.626529463365828 25.557286386664813 0.5
E 36.39244078602901 -0.38752877206964464 28.868441589066613 0.5
E 36.43029581212785 1.6847870022874418 24.31826858924034 0.5
P 33.91148296916159 0.6431267855932717 26.570051406268647 0.5
P 38.911253628995276 0.6541314446245255 26.616658772038306 0.5
A 8.569830837832637 11.082977268738025 5.938273301507667 2.5
E 8.67813244158067 10.482792544004262 8.362742121439425 0.5
E 8.461529234084603 11.683161993471789 3.513804481575911 0.5
E 9.000510447782528 13.477861879676707 6.51189580268933 0.5
E 8.139151227882746 8.688092657799343 5.364650800326005 0.5
P 11.030071849643967 10.690159249186026 5.731130434586711 0.5
P 6.109589826021307 11.475795288290024 6.145416168428624 0.5
A 16.34259096368852 5.855215477738588 16.04093025115332 2.5
E 13.996901633246111 6.679557202871852 16.302085923607816 0.5
E 18.688280294130927 5.0308737526053235 15.779774578698824 0.5
E 16.421126533195974 6.810216113237106 13.731859886153206 0.5
E 16.264055394181064 4.900214842240069 18.350000616153434 0.5
P 17.203737716206916 8.013556161320292 16.962880230395836 0.5
P 15.48144421117012 3.6968747941568845 15.118980271910804 0.5
A 12.823723529208696 5.985378618093199 13.768099340805469 2.5
E 14.3119118617564 4.867244602390809 15.436952782483305 0.5
E 11.335535196660992 7.103512633795589 12.099245899127633 0.5
E 14.79281994717828 6.386442587589771 12.280884834047004 0.5
E 10.854627111239111 5.584314648596626 15.255313847563933 0.5
P 12.42628827207861 3.785623173662449 12.648670378749795 0.5
P 13.221158786338782 8.185134062523948 14.887528302861142 0.5
A 10.492632320184276 36.451897857183724 2.466016897469007 2.5
E 10.470925461234117 35.234555105983716 0.28253219672769525 0.5
E 10.514339179134435 37.66924060838373 4.6495015982103185 0.5
E 12.717403705530295 37.43835802139072 1.8939254472843952 0.5
E 8.267860934838257 35.46543769297673 3.0381083476536186 0.5
P 9.352491497646927 38.39996689357067 1.3912583505151543 0.5
P 11.632773142721625 34.50382882079678 3.5407754444228594 0.5
A 30.816143173100148 1.2740487633652757 18.910541615749516 2.5
E 31.624582564197098 -1.040366316358736 18.420736971355687 0.5
E 30.007703782003198 3.5884638430892872 19.400346260143344 0.5
E 31.790681661569536 1.128213119854928 21.208150524936325 0.5
E 29.84160468463076 1.4198844068756236 16.612932706562706 0.5
P 32.97176384599588 2.207973173491114 18.05550669789147 0.5
P 28.66052250020441 0.34012435323943735 19.76557653360756 0.5
A 33.630923067950256 20.110285201250548 29.445740026691347 2.5
E 35.35887546294788 21.371507523627706 28.15210222028697 0.5
E 31.902970672952634 18.84906287887339 30.739377833095723 0.5
E 31.85326079192319 20.97747508860344 27.916721213313846 0.5
E 35.40858534397732 19.243095313897655 30.974758840068848 0.5
P 33.95356428201231 18.133596062106605 27.94954395191434 0.5
P 33.308281853888204 22.08697434039449 30.941936101468354 0.5
A 6.241456073519562 2.5026955927752903 25.58855597925693 2.5
E 3.981271355869737 3.565011010808065 25.474315028997804 0.5
E 8.501640791169388 1.4403801747425156 25.702796929516058 0.5
E 5.408154558816615 0.5827292591513769 24.2213186687111 0.5
E 7.07475758822251 4.422661926399204 26.955793289802763 0.5
P 6.910166494927835 3.7007002798966218 23.498672934218437 0.5
P 5.57274565211129 1.3046909056539588 27.678439024295425 0.5
70
Properties=species:S:1:pos:R:3:radius:R:1
A 7.127227132590152 26.120903955779646 37.05954025965912 2.5
E 8.33986292642422 23.961568617561692 37.40127894438318 0.5
E 5.914591338756084 28.2802392939976 36.717801574935066 0.5
E 6.299353578430455 25.305662164564577 34.84594449706361 0.5
E 7.955100686749849 26.936145746994715 39.27313602225463 0.5
P 5.103829047724802 25.160356341665203 38.17003945875097 0.5
P 9.150625217455502 27.08145156989409 35.949041060567275 0.5
A 12.64843492780984 24.19467933895888 13.930694663412858 2.5
E 14.46067091902311 24.03316384477315 12.216135403051908 0.5
E 10.836198936596569 24.356194833144613 15.645253923773808 0.5
E 12.427667418761859 26.641335814749194 13.466869484684521 0.5
E 12.86920243685782 21.74802286316857 14.394519842141195 0.5
P 10.940493939631297 23.707047475139913 12.171390043317624 0.5
P 14.356375915988382 24.68231120277785 15.689999283508092 0.5
A 36.475277338567906 40.173354687681595 26.7072342307864 2.5
E 38.36652869977697 38.70482321617812 27.425971739149762 0.5
E 34.58402597735884 41.64188615918507 25.98849672242304 0.5
E 34.98974868748755 39.08896375564128 28.400544873677358 0.5
E 37.960805989648264 41.25774561972191 25.013923587895444 0.5
P 37.15819235198019 41.88142717552052 28.400194791680693 0.5
P 35.79236232515562 38.46528219984267 25.01427366989211 0.5
A 8.775815717329179 11.004756489320648 5.10139121457651 2.5
E 10.974851408507138 11.492864101057595 6.185823318624211 0.5
E 6.576780026151219 10.516648877583702 4.016959110528809 0.5
E 9.910924984530203 10.823081534527066 2.881363925934656 0.5
E 7.640706450128155 11.18643144411423 7.321418503218364 0.5
P 9.130454943077297 8.559609219693602 5.482817287879807 0.5
P 8.421176491581061 13.449903758947695 4.719965141273213 0.5
A 16.836231747523755 5.933105585068492 15.749533880728606 2.5
E 14.445970279544314 6.196019953498364 15.065775041979013 0.5
E 19.226493215503194 5.670191216638619 16.4332927194782 0.5
E 17.488964075240542 5.638195293304878 13.354336930962758 0.5
E 16.183499419806967 6.228015876832106 18.144730830494456 0.5
P 17.16878343230147 8.401688975332496 15.536213881041556 0.5
P 16.50368006274604 3.464522194804488 15.962853880415656 0.5
A 12.422586588101343 6.059874882037787 13.980012050103662 2.5
E 14.150538587843203 4.3840100151962185 14.655037112361432 0.5
E 10.694634588359483 7.735739748879355 13.304986987845892 0.5
E 14.205169970468159 7.793412428779661 13.720697455551505 0.5
E 10.640003205734526 4.3263373352959125 14.239326644655819 0.5
P 12.716828616879853 5.399326229685697 11.586876636806277 0.5
P 12.128344559322832 6.720423534389876 16.373147463401047 0.5
A 10.86759770118044 36.25034908339398 2.6949924661201052 2.5
E 9.974674915444288 35.11883951489366 0.652353243177969 0.5
E 11.760520486916592 37.3818586518943 4.737631689062241 0.5
E 11.618680176491313 38.18185140948435 1.2967171428791453 0.5
E 10.116515225869566 34.318846757303604 4.093267789361065 0.5
P 8.656587973931297 37.36344605162987 3.0449226381687358 0.5
P 13.078607428429583 35.137252115158084 2.3450622940714747 0.5
A 31.42901493717009 1.7379158730211712 18.56407804525997 2.5
E 33.233343859428246 0.0328892942936434 18.26864360898662 0.5
E 29.62468601491194 3.4429424517486993 18.85951248153332 0.5
E 32.69396777628642 2.7462704192566565 20.470151344978127 0.5
E 30.164062098053762 0.729561326785686 16.65800474554181 0.5
P 32.60981612920666 3.263073397645969 16.97360545198271 0.5
P 30.24821374513352 0.21275834839637353 20.154550638537227 0.5
A 32.82617867256194 20.789340466429092 29.487697382347136 2.5
E 34.89435879823749 22.11284161243342 29.957777890648963 0.5
E 30.757998546886384 19.465839320424763 29.01761687404531 0.5
E 34.23063027166642 18.833296911862714 28.81582736633837 0.5
E 31.421727073457458 22.74538402099547 30.1595673983559 0.5
P 32.81406778766692 19.969439052133456 31.849394864520182 0.5
P 32.83828955745695 21.609241880724728 27.12599990017409 0.5
A 6.109899110013083 2.082600704773296 25.70291904791074 2.5
E 4.138515524188357 1.5307744405410044 27.13788752549085 0.5
E 8.081282695837809 2.6344269690055873 24.26795057033063 0.5
E 6.666769157061053 -0.34865890243298736 25.5330000287509 0.5
E 5.553029062965112 4.513860311979579 25.872838067070578 0.5
P 4.676880440125654 1.89695454544086 23.66282272781125 0.5
P 7.542917779900511 2.268246864105732 27.74301536801023 0.5
70
Properties=species:S:1:pos:R:3:radius:R:1
A 6.735427374809359 26.55171496801149 36.63165428581697 2.5
E 8.770441083000403 25.21830827597269 37.20675932066021 0.5
E 4.7004136666183145 27.885121660050288 36.05654925097373 0.5
E 7.249264705364607 26.286880192472335 34.1994055856643 0.5
E 6.221590044254111 26.81654974355064 39.06390298596964 0.5
P 5.377233572289354 24.453647015038413 36.57316959119544 0.5
P 8.093621177329364 28.649782920984563 36.690138980438505 0.5
A 13.021523111292858 24.552276900347625 14.142976613274897 2.5
E 12.286671137502802 25.841066727386043 16.15519264500197 0.5
E 13.756375085082913 23.263487073309207 12.130760581547822 0.5
E 12.547023994906494 26.536869906321485 12.698593980733051 0.5
E 13.496022227679221 22.567683894373765 15.587359245816742 0.5
P 15.36349731379077 25.358757763333372 14.481717594663834 0.5
P 10.679548908794946 23.745796037361877 13.804235631885959 0.5
A 36.27483303156977 39.523031925384025 26.71831921639908 2.5
E 34.88297814158788 37.63959589094728 25.843442842607697 0.5
E 37.66668792155166 41.40646795982077 27.593195590190465 0.5
E 34.3938395671425 40.22003344813445 28.210315350464178 0.5
E 38.15582649599704 38.8260304026336 25.226323082333984 0.5
P 37.15494867852482 38.03412038285759 28.523461556082058 0.5
P 35.39471738461472 41.01194346791046 24.913176876716104 0.5
A 9.260187988348916 10.584719416269943 4.377622323822512 2.5
E 6.776073809758691 10.619446796073008 4.098389881548184 0.5
E 11.744302166939141 10.549992036466877 4.656854766096839 0.5
E 9.230529208598043 13.019472533916336 4.944277080172723 0.5
E 9.289846768099789 8.14996629862355 3.8109675674723 0.5
P 8.980371790622334 10.018352693021974 6.796492231503919 0.5
P 9.540004186075498 11.151086139517911 1.9587524161411047 0.5
A 17.235417996948616 6.498140429750985 15.822190775307183 2.5
E 14.902006030859127 5.802705596714102 16.38925249109449 0.5
E 19.568829963038105 7.193575262787869 15.255129059519877 0.5
E 17.455054732886317 4.5236824945569225 14.304536148464129 0.5
E 17.015781261010915 8.472598364945048 17.33984540215024 0.5
P 16.36539023834587 7.864846782685097 13.918204051584425 0.5
P 18.10544575555136 5.131434076816873 17.72617749902994 0.5
A 12.43878717975852 6.173522261699362 14.056146051829865 2.5
E 12.95064079055364 3.932622691436289 13.073102310629649 0.5
E 11.9269335689634 8.414421831962436 15.039189793030081 0.5
E 12.394959915486282 5.160969025247207 16.34149397156962 0.5
E 12.482614444030759 7.186075498151517 11.77079813209011 0.5
P 14.885434896947196 6.624194048421348 14.302742662979336 0.5
P 9.992139462569845 5.722850474977376 13.809549440680394 0.5
A 10.883737192765736 35.74833160591772 2.90279823603193 2.5
E 11.9728852231112 33.53514275188712 2.4959178305250793 0.5
E 9.794589162420271 37.96152045994832 3.309678641538781 0.5
E 9.157887054533084 35.21685168700216 1.1739343327278113 0.5
E 12.609587330998387 36.27981152483328 4.631662139336049 0.5
P 9.439715770364725 34.71425027827451 4.662195274639968 0.5
P 12.327758615166747 36.78241293356093 1.1434011974238925 0.5
A 32.02764114298232 2.2017757961563795 17.79879796959559 2.5
E 34.26630770959997 2.891562362298017 18.672048504482138 0.5
E 29.788974576364662 1.5119892300147422 16.925547434709042 0.5
E 31.18932389515807 1.9569564172578793 20.141294002402674 0.5
E 32.86595839080657 2.44659517505488 15.456301936788506 0.5
P 31.29579676368472 4.59222721061497 17.78672156267006 0.5
P 32.75948552227992 -0.18867561830221158 17.81087437652112 0.5
A 32.15103622281874 21.36822095344901 29.444698662204587 2.5
E 34.35898694062636 22.321739428581672 30.12716195448693 0.5
E 29.94308550501112 20.41470247831635 28.762235369922244 0.5
E 31.067148353392028 22.472728918863382 31.408177524032535 0.5
E 33.23492409224545 20.26371298803464 27.48121980037664 0.5
P 31.70366533167606 23.3982122519319 28.055816156791938 0.5
P 32.598407113961414 19.338229654966124 30.833581167617236 0.5
A 6.0371568076374515 2.120177828888291 25.734378705617672 2.5
E 4.2926029806992645 0.9096108300133432 27.05387083752078 0.5
E 7.781710634575639 3.3307448277632385 24.414886573714565 0.5
E 7.482470110924748 2.2558233410837647 27.769733650182864 0.5
E 4.591843504350155 1.984532316692817 23.69902376105248 0.5
P 7.0943234928201 -0.06296848692751089 25.12917562938309 0.5
P 4.979990122454803 4.303324144704092 26.339581781852253 0.5
70
Properties=species:S:1:pos:R:3:radius:R:1
A 6.6462410162029375 27.242263236760397 36.66761791571706 2.5
E 8.84318227507785 26.607155410073418 35.657624275372996 0.5
E 4.449299757328024 27.877371063447377 37.67761155606112 0.5
E 5.96692949046014 28.31619394991374 34.51466443866737 0.5
E 7.325552541945735 26.168332523607056 38.82057139276675 0.5
P 5.665432698514147 25.07585817956811 35.896447265260505 0.5
P 7.627049333891728 29.408668293952683 37.43878856617361 0.5
A 13.202592026541582 24.95703951809633 14.120717028917925 2.5
E 14.716774600240282 25.29978179337581 12.161181658927415 0.5
E 11.688409452842883 24.61429724281685 16.080252398908435 0.5
E 12.538489165999014 27.365466331949904 14.028805805823442 0.5
E 13.86669488708415 22.548612704242757 14.212628252012408 0.5
P 11.327433760120643 24.380838151343536 12.570951414114884 0.5
P 15.077750292962522 25.533240884849125 15.670482643720966 0.5
A 35.65976142522917 39.31024403788155 26.629811272098532 2.5
E 35.1307795042508 39.1847780187428 24.189639883585205 0.5
E 36.18874334620754 39.43571005702031 29.06998266061186 0.5
E 35.04379792171229 41.73315733687263 26.638761574156405 0.5
E 36.27572492874605 36.887330738890476 26.62086097004066 0.5
P 33.295281125118215 38.70712761163104 27.173395200092695 0.5
P 38.024241725340126 39.91336046413207 26.08622734410437 0.5
A 9.324881586787408 10.450821211663547 4.287031559337931 2.5
E 11.035480269987366 8.871542347195891 5.197926950302115 0.5
E 7.6142829035874495 12.030100076131202 3.3761361683737476 0.5
E 10.090646686139523 9.93965943313774 1.9627429695134992 0.5
E 8.559116487435292 10.961982990189354 6.611320149162363 0.5
P 7.670355685615629 8.581438451386894 4.153045970815776 0.5
P 10.979407487959186 12.320203971940199 4.421017147860087 0.5
A 17.615845675707146 6.788229967940243 15.620520094185844 2.5
E 15.272403928311123 6.047811421540958 15.162195806468489 0.5
E 19.95928742310317 7.528648514339528 16.0788443819032 0.5
E 18.13480317497669 6.65735696330992 13.178480911327979 0.5
E 17.096888176437602 6.919102972570566 18.06255927704371 0.5
P 16.916586145550028 9.172480926377542 15.344144486221886 0.5
P 18.315105205864263 4.403979009502944 15.896895702149802 0.5
A 12.245865568542396 5.922171425059763 13.558413661972395 2.5
E 10.95921036338568 5.640239963609432 11.433552952634077 0.5
E 13.532520773699112 6.2041028865100945 15.683274371310713 0.5
E 10.312515708355905 7.144950137734323 14.566863233318903 0.5
E 14.179215428728886 4.699392712385203 12.549964090625886 0.5
P 11.320297256011042 3.759921006889712 14.40576036077014 0.5
P 13.17143388107375 8.084421843229814 12.71106696317465 0.5
A 11.247276690787217 35.186752952109664 3.3934675211281715 2.5
E 13.254509149033092 36.31944628473696 2.4249512988675317 0.5
E 9.240044232541342 34.054059619482366 4.361983743388811 0.5
E 10.535701254542975 34.487634935571016 1.1011118773675843 0.5
E 11.95885212703146 35.88587096864831 5.685823164888759 0.5
P 12.556733928383839 33.07056774916337 3.6323857701865023 0.5
P 9.937819453190595 37.30293815505596 3.1545492720698407 0.5
A 31.944594955180786 2.716984493997049 16.72255446008185 2.5
E 32.12031843979931 3.4024391387922757 19.120318665937504 0.5
E 31.76887147056226 2.0315298492018226 14.324790254226194 0.5
E 33.08237970208144 0.5559939352336425 17.25693791290955 0.5
E 30.80681020828013 4.877975052760456 16.188171007254148 0.5
P 29.725458382845915 1.6632901669436597 17.186409112383377 0.5
P 34.16373152751566 3.7706788210504385 16.25869980778032 0.5
A 31.995037748588267 21.377288217625537 29.159538652321114 2.5
E 34.298318231050416 20.409911563517355 29.064242124604792 0.5
E 29.691757266126118 22.34466487173372 29.254835180037436 0.5
E 32.90655886449083 23.61186133706296 28.506995757829998 0.5
E 31.0835166326857 19.142715098188113 29.81208154681223 0.5
P 31.65735702013005 20.81083841139946 26.748085492366776 0.5
P 32.332718477046484 21.943738023851616 31.57099181227545 0.5
A 6.222690461496525 2.0596717534499285 25.586224745188026 2.5
E 4.528789982833922 0.2845942320992143 25.106849149661983 0.5
E 7.916590940159127 3.8347492748006426 26.06560034071407 0.5
E 4.649682001374703 3.121223461954381 27.213723548431947 0.5
E 7.795698921618346 0.9981200449454757 23.958725941944106 0.5
P 7.174712285183209 0.6553186057799356 27.422374707434464 0.5
P 5.27066863780984 3.464024901119921 23.75007478294159 0.5
70
Properties=species:S:1:pos:R:3:radius:R:1
A 6.523523164359189 27.956992195521977 36.37846198581735 2.5
E 6.179568930563898 26.638992811585904 34.28213827298106 0.5
E 6.867477398154481 29.27499157945805 38.47478569865365 0.5
E 4.065208591896971 28.392842820684134 36.5077821132801 0.5
E 8.981837736821408 27.52114157035982 36.249141858354605 0.5
P 6.2262271033770125 25.877830860634464 37.73444988975846 0.5
P 6.820819225341366 30.03615353040949 35.02247408187625 0.5
A 13.374157296632873 25.015308176698706 13.955112303187075 2.5
E 12.001052708769278 27.09636960678705 14.138870609087173 0.5
E 14.747261884496469 22.934246746610363 13.771353997286978 0.5
E 14.141434918370773 25.313120781295353 16.315746265436253 0.5
E 12.606879674894973 24.71749557210206 11.594478340937897 0.5
P 11.430997796754173 23.662351792796148 14.7573841905726 0.5
P 15.317316796511573 26.368264560601265 13.15284041580155 0.5
A 35.41644124941486 39.0779782172263 26.35114063743814 2.5
E 35.427229424384635 36.83719575860761 27.459643045386365 0.5
E 35.405653074445084 41.31876067584499 25.242638229489913 0.5
E 37.175105273316724 39.87262584994854 27.940365602898236 0.5
E 33.657777225512994 38.283330584504064 24.76191567197804 0.5
P 37.19323174531288 38.3050428299169 24.771398120212393 0.5
P 33.63965075351684 39.850913604535705 27.930883154663885 0.5
A 9.254889736920022 10.380304245330834 4.20085930751224 2.5
E 8.958404536521144 9.923875316365368 1.7608246440807154 0.5
E 9.5513749373189 10.836733174296299 6.640893970943765 0.5
E 6.80301113658844 10.050253134242348 4.560522473967761 0.5
E 11.706768337251605 10.710355356419319 3.8411961410567197 0.5
P 9.642688467165483 7.944582812803663 4.609360528988154 0.5
P 8.867091006674562 12.816025677858004 3.792358086036326 0.5
A 17.678953838374913 7.219429887492205 16.056337337978025 2.5
E 15.622558934003857 6.295389734714207 14.975879197496356 0.5
E 19.735348742745966 8.143470040270202 17.136795478459696 0.5
E 17.02655907222371 9.520841360719778 15.329779494446388 0.5
E 18.331348604526116 4.9180184142646315 16.782895181509662 0.5
P 16.41577488574088 7.535111732001577 18.1905172522945 0.5
P 18.942132791008945 6.903748042982833 13.922157423661549 0.5
A 12.473072282352785 5.853194799793567 13.174880941214182 2.5
E 12.54169480815126 6.482311507300028 10.756306336764037 0.5
E 12.40444975655431 5.2240780922871055 15.593455545664327 0.5
E 13.39446437279907 8.095859282800648 13.784382895537147 0.5
E 11.551680191906499 3.6105303167864853 12.565378986891217 0.5
P 10.150072591302877 6.761307229505174 13.34518728398279 0.5
P 14.796071973402693 4.945082370081959 13.004574598445574 0.5
A 11.7366075433553 35.194728231000695 4.210380852517527 2.5
E 11.725257568518723 36.81650995380049 2.3078311891289296 0.5
E 11.747957518191877 33.5729465082009 6.112930515906124 0.5
E 9.655518997998064 34.13436787590345 3.3189177945519805 0.5
E 13.817696088712536 36.25508858609794 5.101843910483073 0.5
P 13.12186623560395 33.61502573972998 2.8555382806225538 0.5
P 10.35134885110665 36.77443072227141 5.565223424412499 0.5
A 31.977553989064873 2.6507836068596022 15.967498645268602 2.5
E 32.08601570650165 1.961318104760069 18.368097190895497 0.5
E 31.869092271628098 3.3402491089591355 13.566900099641709 0.5
E 34.17278092764881 3.8231969241196158 16.205039592533343 0.5
E 29.782327050480937 1.478370289599589 15.729957698003863 0.5
P 33.16886198617004 0.5531458080662395 15.311220563121053 0.5
P 30.786245991959706 4.748421405652965 16.623776727416153 0.5
A 31.98106756865309 21.09828342154856 28.920273743137912 2.5
E 31.80897815010696 19.231266709706645 30.573946573454418 0.5
E 32.15315698719922 22.96530013339048 27.266600912821406 0.5
E 33.60730175045154 19.757515738632293 27.57576475975505 0.5
E 30.354833386854637 22.43905110446483 30.264782726520775 0.5
P 30.090102836572044 20.11513001635185 27.613498412839956 0.5
P 33.87203230073413 22.081436826745275 30.227049073435868 0.5
A 6.627406932519033 1.6705679600018009 25.670076773492827 2.5
E 6.630512405604677 1.8628951527581212 23.177487636276833 0.5
E 6.624301459433389 1.4782407672454805 28.16266591070882 0.5
E 4.131360848864254 1.530708378954328 25.656175483457137 0.5
E 9.123453016173812 1.8104275410492736 25.683978063528517 0.5
P 6.767921359936097 -0.8180962496736401 25.478227491054877 0.5
P 6.486892505101969 4.159232169677242 25.861926055930777 0.5
70
Properties=species:S:1:pos:R:3:radius:R:1
A 6.645668039544264 28.324522438409737 36.243372450411805 2.5
E 6.4816647309010165 27.030801787672257 34.110442589255825 0.5
E 6.809671348187512 29.618243089147217 38.376302311567784 0.5
E 5.5419782410188345 26.44520398217913 37.46812996465833 0.5
E 7.749357838069694 30.203840894640344 35.01861493616528 0.5
P 8.882847456440993 27.30253955306976 36.69123318622955 0.5
P 4.4084886226475355 29.346505323749714 35.795511714594056 0.5
A 13.600029749349074 25.160922658155584 13.781865490558708 2.5
E 12.655949435215316 24.460556601757276 15.988265215792262 0.5
E 14.544110063482833 25.861288714553893 11.575465765325154 0.5
E 15.694874475808415 23.888473199406995 14.274306296094187 0.5
E 11.505185022889734 26.433372116904174 13.28942468502323 0.5
P 12.614972424879522 23.126135258456042 12.714484440730022 0.5
P 14.585087073818627 27.195710057855127 14.849246540387394 0.5
A 35.64053541887909 38.67529869072204 25.784297266598646 2.5
E 33.93312925812097 36.85578397812158 25.939636935824105 0.5
E 37.34794157963721 40.494813403322496 25.628957597373187 0.5
E 33.81983387190953 40.35506487174488 25.447501402678103 0.5
E 37.46123696584865 36.995532509699196 26.12109313051919 0.5
P 35.499787136235 39.01844849433818 28.256631817829593 0.5
P 35.78128370152318 38.332148887105895 23.3119627153677 0.5
A 9.367417195575118 10.538509288084725 4.115384108257928 2.5
E 8.989794166329805 11.511910939617225 6.3869232500243776 0.5
E 9.745040224820432 9.565107636552225 1.8438449664914778 0.5
E 8.912450302959284 8.252498488364726 5.019352996100135 0.5
E 9.822384088190953 12.824520087804725 3.2114152204157205 0.5
P 6.93834206820529 10.815355542090424 3.592937769160862 0.5
P 11.796492322944946 10.261663034079026 4.637830447354993 0.5
A 17.74985073667809 7.308471892751426 16.545945691581444 2.5
E 16.824742889724735 6.965232054068371 14.248912412621703 0.5
E 18.674958583631447 7.65171173143448 18.842978970541186 0.5
E 17.197612956830593 9.742616953513085 16.40462599132313 0.5
E 18.30208851652559 4.874326831989765 16.68726539183976 0.5
P 15.493923232076755 6.85336285492332 17.52250437270242 0.5
P 20.00577824127943 7.763580930579531 15.569387010460467 0.5
A 12.700381194659544 5.809714375647776 13.485497693411775 2.5
E 14.728395476987194 6.974421328421469 12.601973056043096 0.5
E 10.672366912331894 4.645007422874082 14.369022330780453 0.5
E 14.12003383514244 4.601294934778173 15.151123352225937 0.5
E 11.280728554176648 7.018133816517378 11.819872034597612 0.5
P 12.351462219757376 7.662598659430977 15.127166167819505 0.5
P 13.049300169561711 3.956830091864574 11.843829219004045 0.5
A 11.711557708808924 35.68370773449301 4.728299539433526 2.5
E 11.886941555609697 34.63859386335178 2.4640165397566243 0.5
E 11.53617386200815 36.728821605634245 6.992582539110428 0.5
E 10.354210978832993 33.73949619642622 5.520544040751062 0.5
E 13.068904438784854 37.62791927255981 3.9360550381159896 0.5
P 13.803650049242606 34.50991963965118 5.43212561702839 0.5
P 9.619465368375241 36.857495829334844 4.024473461838662 0.5
A 31.613498175861114 2.6387116982827865 15.165840926294031 2.5
E 31.27245604413782 2.4096727752506943 17.631856221487222 0.5
E 31.95454030758441 2.8677506213148787 12.69982563110084 0.5
E 31.39684725000371 5.121214220300157 15.366449013128433 0.5
E 31.83014910171852 0.15620917626541564 14.96523283945963 0.5
P 34.08063267578518 2.825051173205649 15.524344705033826 0.5
P 29.146363675937042 2.452372223359924 14.807337147554236 0.5
A 31.969656248254417 21.585142596831016 29.093643900367816 2.5
E 30.975532812774674 21.021934104409144 31.31727039532902 0.5
E 32.96377968373416 22.148351089252888 26.87001740540661 0.5
E 32.412740304952656 19.160163575210174 28.677527013666158 0.5
E 31.526572191556177 24.01012161845186 29.509760787069474 0.5
P 29.719012981601658 21.356509837230966 28.029533028556102 0.5
P 34.220299514907175 21.813775356431066 30.15775477217953 0.5
A 6.728334929018851 1.3468854129157473 25.686329268211253 2.5
E 7.14269046050047 2.8546910600768376 27.63692702887932 0.5
E 6.313979397537233 -0.16092023424534307 23.735731507543186 0.5
E 6.830542110479542 3.3126341240794686 24.14510063604158 0.5
E 6.626127747558161 -0.6188632982479738 27.227557900380926 0.5
P 9.191638236691706 1.0116927295963347 25.422165153576646 0.5
P 4.265031621345998 1.6820780962351598 25.95049338284586 0.5
70
Properties=species:S:1:pos:R:3:radius:R:1
A 6.740958085306882 28.909826796878097 36.41736896108752 2.5
E 7.610977253593459 27.284828434340845 34.7284500854257 0.5
E 5.870938917020304 30.534825159415348 38.10628783674934 0.5
E 7.807142415285802 27.57990634134286 38.24618348324605 0.5
E 5.674773755327961 30.239747252413334 34.58855443892899 0.5
P 8.82813743105629 30.266547808619936 36.18717236038093 0.5
P 4.653778739557474 27.553105785136257 36.64756556179411 0.5
A 14.321634230289657 24.746918371114738 13.296076618283983 2.5
E 15.525321678591835 23.959250209785946 15.340756396251402 0.5
E 13.117946781987479 25.53458653244353 11.251396840316565 0.5
E 16.494821045095872 25.474172778128974 12.29689690700529 0.5
E 12.148447415483442 24.019663964100502 14.295256329562676 0.5
P 14.601626363665563 22.48844988669715 12.261221792648852 0.5
P 14.041642096913751 27.005386855532326 14.330931443919114 0.5
A 35.8511194309463 38.22404591380766 25.225011197498038 2.5
E 33.53627306161721 37.42823622926178 24.716903696681015 0.5
E 38.16596580027539 39.01985559835354 25.73311869831506 0.5
E 35.96952464528615 39.31411065850316 22.97829380147586 0.5
E 35.732714216606446 37.133981169112154 27.471728593520215 0.5
P 34.91438761680702 40.32843318766067 26.196652957625925 0.5
P 36.78785124508558 36.11965863995464 24.25336943737015 0.5
A 9.615648681370555 10.400787408970979 4.1815227194007525 2.5
E 7.968154947550962 10.91914528471593 2.374019051443752 0.5
E 11.263142415190147 9.882429533226029 5.989026387357753 0.5
E 8.978674877901604 7.985890100050282 4.069561292732812 0.5
E 10.252622484839506 12.815684717891676 4.2934841460686926 0.5
P 11.384837413733251 10.01403671405188 2.458039290626307 0.5
P 7.846459949007858 10.787538103890078 5.9050061481751985 0.5
A 18.135393772155286 7.3808032300437345 16.491032835101322 2.5
E 19.787800936550322 9.11230415390888 15.768914345023369 0.5
E 16.48298660776025 5.64930230617859 17.213151325179275 0.5
E 17.558274492758837 8.765584117408238 18.49086163560932 0.5
E 18.712513051551735 5.996022342679231 14.491204034593324 0.5
P 16.350321252505946 8.535916403999641 15.176031065160066 0.5
P 19.920466291804626 6.225690056087828 17.806034605042576 0.5
A 12.840454091415472 5.139247383161133 13.970714152523946 2.5
E 14.82427451386859 3.949665648886328 13.02237253214678 0.5
E 10.856633668962354 6.328829117435938 14.919055772901112 0.5
E 11.44071749083554 4.32252159449182 12.067113239748021 0.5
E 14.240190691995403 5.955973171830446 15.874315065299871 0.5
P 12.244472564472918 3.097715046017255 15.284849509304589 0.5
P 13.436435618358026 7.180779720305011 12.656578795743304 0.5
A 11.3467968727684 36.014923671776735 4.886347910169824 2.5
E 12.593617765482744 33.86224076865399 4.63856982378932 0.5
E 10.099975980054055 38.16760657489948 5.134125996550328 0.5
E 9.390011019435747 34.77358568469332 5.824467905701974 0.5
E 13.303582726101052 37.25626165886015 3.9482279146376738 0.5
P 12.277617363348911 36.288851254219765 7.190374145673385 0.5
P 10.415976382187887 35.740996089333706 2.5823216746662627 0.5
A 31.41562326831084 2.757927352365673 15.326712438791802 2.5
E 30.039649827773395 4.311739870349978 16.720399544957136 0.5
E 32.79159670884828 1.2041148343813677 13.93302533262647 0.5
E 30.657222125204772 3.9409323562223575 13.259026082744025 0.5
E 32.1740244114169 1.574922348508989 17.394398794839578 0.5
P 33.36023757378934 4.318749513858132 15.506460548998945 0.5
P 29.471008962832336 1.1971051908732138 15.146964328584659 0.5
A 32.064072611942244 22.283403020353763 29.15175418928499 2.5
E 31.69706895611419 24.522301943082816 28.101687557869784 0.5
E 32.431076267770294 20.04450409762471 30.201820820700195 0.5
E 30.29268835971477 22.786129147094613 30.842749243225953 0.5
E 33.83545686416972 21.780676893612913 27.460759135344027 0.5
P 30.338527437926363 21.291133875769 27.639175002222153 0.5
P 33.78961778595813 23.275672164938527 30.664333376347827 0.5
A 6.772097359213137 0.6581548592389175 25.029410512216028 2.5
E 4.814372909097662 -0.3872804509306462 26.180227608749682 0.5
E 8.729821809328612 1.7035901694084812 23.878593415682374 0.5
E 6.612315421108 2.6341001262729558 26.552601253372423 0.5
E 6.931879297318274 -1.3177904077951208 23.506219771059634 0.5
P 8.318636951231023 -0.46108832878586137 26.643569728769556 0.5
P 5.225557767195252 1.7773980472636963 23.4152512956625 0.5
70
Properties=species:S:1:pos:R:3:radius:R:1
A 6.61264325500138 29.859189517507964 36.564865642278086 2.5
E 7.78527319784517 30.770852789832087 34.55394319348919 0.5
E 5.440013312157591 28.94752624518384 38.57578809106698 0.5
E 5.371271045471702 32.01439008311356 36.818056399262666 0.5
E 7.8540154645310585 27.703988951902367 36.311674885293506 0.5
P 4.786736889780186 28.97942784528628 35.101279175568266 0.5
P 8.438549620222574 30.738951189729647 38.028452108987906 0.5
A 14.549711589534768 24.67814448319013 12.92077947457651 2.5
E 13.979286774341475 25.365609728973475 15.255732807311848 0.5
E 15.120136404728061 23.990679237406788 10.58582614184117 0.5
E 16.543290184987715 26.186053600696773 12.963843114602717 0.5
E 12.55613299408182 23.17023536568349 12.877715834550301 0.5
P 15.946228654938434 22.80635346141967 13.813045386093892 0.5
P 13.153194524131102 26.549935504960594 12.028513563059127 0.5
A 35.92118407149576 37.89509847184919 25.228658759519632 2.5
E 35.41776777244803 37.03992636373365 22.934044915023385 0.5
E 36.42460037054349 38.75027057996473 27.52327260401588 0.5
E 36.04947982634351 35.54650535963294 26.075801364125233 0.5
E 35.79288831664801 40.24369158406544 24.38151615491403 0.5
P 38.36661087046985 37.8422680000442 24.711844758057087 0.5
P 33.47575727252167 37.947928943654176 25.745472760982178 0.5
A 9.370072477306632 9.847583408714687 4.082069388045158 2.5
E 10.174373948627302 7.487610155403528 4.265441651178975 0.5
E 8.565771005985962 12.207556662025846 3.898697124911342 0.5
E 8.24448331848824 9.636645664516085 6.304355218810944 0.5
E 10.495661636125025 10.05852115291329 1.8597835572793735 0.5
P 11.452414473420953 10.645099246631288 5.2124765268629725 0.5
P 7.287730481192311 9.050067570798086 2.9516622492273443 0.5
A 18.304119044302464 7.5444283878111005 16.378792294175646 2.5
E 20.44232696861863 6.708433495165413 17.368327241443453 0.5
E 16.165911119986298 8.380423280456789 15.38925734690784 0.5
E 18.812311182477195 6.3291558408643604 14.253973857852813 0.5
E 17.795926906127733 8.75970093475784 18.50361073049848 0.5
P 17.112562237813 5.5259573882398065 17.248256037410936 0.5
P 19.49567585079193 9.562899387382394 15.509328550940356 0.5
A 13.243227971840989 4.5388794575156926 14.170183796955452 2.5
E 10.971848276687107 5.052553034578496 13.260802833512669 0.5
E 15.514607666994872 4.025205880452889 15.079564760398236 0.5
E 14.230387802811082 6.305639945956288 12.70250779571873 0.5
E 12.256068140870896 2.7721189690750974 15.637859798192174 0.5
P 12.902127182390542 6.231420988088759 15.978208525415665 0.5
P 13.584328761291436 2.8463379269426254 12.36215906849524 0.5
A 10.953402470244098 35.86904183296789 5.104812139430056 2.5
E 12.567059823537447 34.388607524570666 6.310807249154472 0.5
E 9.33974511695075 37.34947614136511 3.89881702970564 0.5
E 9.111588043555502 35.07890119553769 6.599267689361069 0.5
E 12.795216896932695 36.659182470398086 3.6103565894990424 0.5
P 11.457217479747104 37.72214518453744 6.705492746108863 0.5
P 10.449587460741093 34.01593848139834 3.504131532751248 0.5
A 31.48025346744415 2.811488406526556 15.557981340812285 2.5
E 29.34931899397549 3.4485314287732356 14.416362114629406 0.5
E 33.611187940912814 2.1744453842798768 16.699600566995162 0.5
E 31.037906131402103 0.4058041247173323 15.041249330430428 0.5
E 31.922600803486198 5.21717268833578 16.07471335119414 0.5
P 32.71047584737393 3.049940338922976 13.394721399922826 0.5
P 30.250031087514376 2.5730364741301366 17.721241281701744 0.5
A 32.54456434792662 22.920879880331157 29.879467752169667 2.5
E 32.92764520858917 22.516343271997464 27.442338460008035 0.5
E 32.161483487264064 23.32541648866485 32.3165970443313 0.5
E 30.07430737779224 22.890956984857702 29.496146578961906 0.5
E 35.01482131806099 22.95080277580461 30.26278892537743 0.5
P 32.51170775502769 20.45400842992181 30.28377665815458 0.5
P 32.57742094082554 25.387751330740503 29.475158846184755 0.5
A 6.610141768784291 0.45025930061051345 24.481899264997445 2.5
E 7.688814218324909 -1.7283524033566815 23.898703937561837 0.5
E 5.531469319243673 2.628871004577708 25.065094592433052 0.5
E 6.261576928750994 -0.34948074089683767 26.824743352491513 0.5
E 6.958706608817588 1.2499993421178646 22.139055177503376 0.5
P 8.838362650765728 1.3798112945035403 25.13071726085984 0.5
P 4.381920886802854 -0.47929269328251345 23.83308126913505 0.5
70
Properties=species:S:1:pos:R:3:radius:R:1
A 5.823270657300145 30.65242550834898 37.023944728386596 2.5
E 4.723518189607505 29.45457279763711 35.1250783841575 0.5
E 6.923023124992785 31.85027821906085 38.922811072615694 0.5
E 3.860551439095119 30.138745592679566 38.48472062315223 0.5
E 7.785989875505171 31.166105424018394 35.56316883362096 0.5
P 6.91335220484345 28.51905216369505 37.73839584079913 0.5
P 4.7331891097568395 32.78579885300291 36.30949361597406 0.5
A 15.086320611157147 24.719965369882754 12.67767081685343 2.5
E 15.304341514679841 26.824033625498064 14.010098548979734 0.5
E 14.868299707634453 22.615897114267444 11.345243084727127 0.5
E 17.515779220255663 24.24602963709988 13.028549411054936 0.5
E 12.656862002058633 25.193901102665627 12.326792222651925 0.5
P 14.538417561061229 23.45573370721026 14.763700670616814 0.5
P 15.634223661253065 25.984197032555247 10.591640963090047 0.5
A 35.696197502172026 37.97525477522976 25.110858448415883 2.5
E 33.55156706107009 38.241698641343504 23.854049816479815 0.5
E 37.840827943273965 37.70881090911601 26.36766708035195 0.5
E 34.94721355839064 39.70300304784205 26.755215148904753 0.5
E 36.445181445953416 36.24750650261746 23.466501747927012 0.5
P 34.65236642241998 36.18810800657998 26.513186193362866 0.5
P 36.74002858192407 39.762401543879534 23.7085307034689 0.5
A 8.444718561863276 9.37386982491092 3.7224094148008 2.5
E 6.008872851267622 8.858216325110456 3.947702873018704 0.5
E 10.88056427245893 9.889523324711382 3.4971159565828955 0.5
E 9.006567095377576 7.20096672006618 4.823689725322793 0.5
E 7.882870028348975 11.546772929755658 2.6211291042788067 0.5
P 8.476053838470923 8.250217937047458 1.489379066744533 0.5
P 8.413383285255629 10.49752171277438 5.9554397628570666 0.5
A 17.897066491161468 7.110357155318564 16.37391238670114 2.5
E 16.30131061298191 8.405999338737693 17.79689324033292 0.5
E 19.492822369341024 5.814714971899434 14.950931533069358 0.5
E 16.07844688528116 5.4905047055625875 15.809376497558876 0.5
E 19.715686097041775 8.73020960507454 16.938448275843403 0.5
P 17.267633487287764 8.505846092417961 14.397444648520207 0.5
P 18.52649949503517 5.7148682182191655 18.350380124882072 0.5
A 13.525820565296554 3.9595376594753167 14.703838753352677 2.5
E 14.107794803974482 6.364018159535978 15.064087987002585 0.5
E 12.943846326618626 1.5550571594146554 14.34358951970277 0.5
E 11.853791108530721 4.624272095601803 12.968198921723712 0.5
E 15.197850022062386 3.2948032233488305 16.439478584981643 0.5
P 15.290933445886537 3.7964375237987875 12.940950536669698 0.5
P 11.76070768470657 4.122637795151846 16.46672697003566 0.5
A 10.900844228807513 35.53196505529067 5.328126494415176 2.5
E 10.294571986309402 37.843892449677234 6.061219729316158 0.5
E 11.507116471305624 33.220037660904104 4.595033259514193 0.5
E 9.382306834421435 34.58092049680881 7.071559438244532 0.5
E 12.41938162319359 36.48300961377253 3.5846935505858193 0.5
P 9.009686342795938 35.55445885139791 3.6931904469474985 0.5
P 12.792002114819088 35.50947125918343 6.963062541882852 0.5
A 31.757719732627347 2.7747054733603504 15.437414707461468 2.5
E 29.323337939938554 2.7984923321215134 16.00593864959256 0.5
E 34.19210152531614 2.7509186145991875 14.868890765330375 0.5
E 32.25185545921759 4.101673237928688 17.497751193452128 0.5
E 31.263584006037103 1.4477377087920122 13.377078221470807 0.5
P 32.03988133726755 0.6560760255456808 16.734254748376337 0.5
P 31.475558127987146 4.89333492117502 14.140574666546597 0.5
A 33.1275008579306 23.166971150216828 30.28220913113501 2.5
E 35.47607334784613 22.35744886029791 30.563066606978072 0.5
E 30.778928368015066 23.976493440135744 30.001351655291945 0.5
E 32.499561273245924 20.9833802504323 29.239317640919086 0.5
E 33.755440442615274 25.350562050001354 31.32510062135093 0.5
P 32.54449216365706 22.25779325535621 32.53687017393032 0.5
P 33.71050955220414 24.076149045077447 28.0275480883397 0.5
A 6.4666721903585405 0.16148417317940508 24.005989936254174 2.5
E 4.256035577047129 1.1532463918892664 23.389959526752918 0.5
E 8.677308803669952 -0.8302780455304561 24.62202034575543 0.5
E 6.491553528964059 1.520313088780569 26.104314243199816 0.5
E 6.441790851753022 -1.197344742421759 21.907665629308532 0.5
P 5.299424708939201 -1.6878377781501626 25.217411265707455 0.5
P 7.63391967177788 2.0108061245089726 22.794568606800894 0.5
70
Properties=species:S:1:pos:R:3:radius:R:1
A 5.215479428199289 30.931325339422443 37.39981081514829 2.5
E 6.770352853528385 29.298921657367398 38.48037865199169 0.5
E 3.6606060028701926 32.563729021477485 36.31924297830489 0.5
E 5.026846550439286 32.179906838543864 39.557462751277384 0.5
E 5.404112305959291 29.682743840301022 35.2421588790192 0.5
P 7.164013818102449 32.35480785033249 36.74642633989664 0.5
P 3.266945038296129 29.507842828512395 38.05319529039995 0.5
A 15.213702729371695 24.915502655465232 12.76593105801759 2.5
E 13.48526865253585 25.459606877203715 14.488274298466232 0.5
E 16.94213680620754 24.37139843372675 11.04358781756895 0.5
E 16.67842793393166 23.942792684799876 14.543124178670245 0.5
E 13.748977524811734 25.88821262613059 10.988737937364936 0.5
P 14.156775240298039 22.6776943730481 12.412210300942332 0.5
P 16.27063021844535 27.153310937882363 13.11965181509285 0.5
A 35.48750987737652 38.47402774682569 25.329052312168574 2.5
E 33.450557154808344 37.15825014277662 24.72114368194139 0.5
E 37.52446259994469 39.78980535087476 25.93696094239576 0.5
E 35.0983812388846 39.98051019480781 23.372246359441807 0.5
E 35.876638515868436 36.96754529884357 27.285858264895342 0.5
P 34.091299825583725 39.97377436896037 26.761308420784662 0.5
P 36.88371992916931 36.97428112469101 23.896796203552487 0.5
A 8.008204967267018 9.053608032517168 3.85952117349131 2.5
E 6.10631368440249 8.477307847564802 2.34271939178511 0.5
E 9.910096250131545 9.629908217469534 5.3763229551975105 0.5
E 7.2673912481845075 7.282803094470734 5.461221802513105 0.5
E 8.749018686349528 10.824412970563603 2.257820544469515 0.5
P 9.451813148797719 7.385636819272304 2.6831422166906567 0.5
P 6.564596785736318 10.721579245762033 5.035900130291964 0.5
A 17.654901310531596 6.779842526001763 16.424214065149442 2.5
E 16.285453990675755 4.701249647609108 16.656734352516988 0.5
E 19.024348630387436 8.858435404394418 16.191693777781897 0.5
E 18.33969057352892 6.071647260326581 14.126492774182816 0.5
E 16.970112047534272 7.488037791676946 18.721935356116067 0.5
P 15.678622559083376 7.974794872990165 15.466920387637849 0.5
P 19.631180061979816 5.584890179013362 17.381507742661036 0.5
A 13.666583472025115 3.194543393901687 15.371725000381371 2.5
E 14.233944540786148 5.470779798252622 14.50752059796028 0.5
E 13.099222403264083 0.9183069895507532 16.235929402802462 0.5
E 12.540015557798503 2.6533125916234472 13.20656589461051 0.5
E 14.793151386251727 3.735774196179927 17.536884106152232 0.5
P 15.82504267995367 2.313738619746308 14.468820355617789 0.5
P 11.50812426409656 4.075348168057067 16.274629645144955 0.5
A 10.579437591170112 35.610849772308555 5.223857377145269 2.5
E 11.368760991332364 33.70542506676487 3.8109436283777836 0.5
E 9.790114191007861 37.51627447785224 6.636771125912755 0.5
E 9.322970616094562 34.01198193528789 6.678131209778417 0.5
E 11.835904566245663 37.20971760932922 3.769583544512121 0.5
P 12.591466246656147 35.359894933262254 6.6863081825600865 0.5
P 8.567408935684078 35.861804611354856 3.7614065717304523 0.5
A 31.974612804382918 2.9598309849342206 14.649558383527307 2.5
E 30.00862966847836 4.231427232936578 13.773228941247869 0.5
E 33.94059594028748 1.6882347369318633 15.525887825806745 0.5
E 32.530182455773456 2.2185392768838925 12.327527167968348 0.5
E 31.41904315299238 3.7011226929845487 16.971589599086265 0.5
P 33.415533576595344 4.980605486367455 14.349195698487062 0.5
P 30.53369203217049 0.9390564835009858 14.949921068567551 0.5
A 33.33411218434217 23.162146334761108 30.188548127545808 2.5
E 34.977818896216306 21.607320346772237 29.12518347117675 0.5
E 31.69040547246803 24.716972322749978 31.251912783914864 0.5
E 31.493295062295985 21.536929941613284 29.719438333760035 0.5
E 35.17492930638835 24.78736272790893 30.65765792133158 0.5
P 33.73363761347286 22.070730821531363 32.401959885208605 0.5
P 32.93458675521148 24.253561847990852 27.97513636988301 0.5
A 6.182179312661689 40.13151412892061 23.625673173111654 2.5
E 5.077891752788564 38.31744930411982 24.944656795653398 0.5
E 7.286466872534814 41.945578953721395 22.30668955056991 0.5
E 8.128909059124346 40.08644609033351 25.193541843038684 0.5
E 4.235449566199032 40.1765821675077 22.057804503184624 0.5
P 7.296087872351533 38.411881120595346 22.19316836078769 0.5
P 5.068270752971845 41.85114713724587 25.058177985435616 0.5
70
Properties=species:S:1:pos:R:3:radius:R:1
A 4.642646331482616 30.60734289609684 37.35135584671542 2.5
E 6.004063016140565 30.473326868701648 35.25884914059992 0.5
E 3.2812296468246664 30.74135892349203 39.44386255283092 0.5
E 4.22438484503647 33.03473308605739 36.92376469311039 0.5
E 5.060907817928761 28.179952706136284 37.77894700032045 0.5
P 2.587992604040206 30.02440501768557 36.05190154193108 0.5
P 6.697300058925025 31.190280774508107 38.65081015149976 0.5
A 15.156447950612597 24.87836302245794 12.826965385610245 2.5
E 15.356356250740742 24.97966750974163 10.337030833780437 0.5
E 14.956539650484451 24.77705853517425 15.316899937440054 0.5
E 12.824411464824136 24.005442734956134 12.604218891543523 0.5
E 17.488484436401055 25.751283309959746 13.049711879676968 0.5
P 16.03487979230046 22.537904184425578 12.802268685731125 0.5
P 14.278016108924735 27.2188218604903 12.851662085489366 0.5
A 35.02025911655146 39.0853171539351 25.96867548717893 2.5
E 35.79271327691923 38.50236346752609 28.273774090196255 0.5
E 34.247804956183685 39.668270840344114 23.663576884161607 0.5
E 36.46311097853021 37.27382372917521 25.02704388382447 0.5
E 33.577407254572705 40.89681057869499 26.910307090533394 0.5
P 33.1304196856699 37.46400392955383 26.191947415399746 0.5
P 36.910098547433016 40.70663037831637 25.745403558958117 0.5
A 7.238637479169054 9.136518464387857 4.234887801533397 2.5
E 8.294303787269941 10.695921718795876 5.879220534310254 0.5
E 6.182971171068168 7.577115209979836 2.5905550687565393 0.5
E 8.982121766313064 7.4188146655334855 4.744550631139692 0.5
E 5.495153192025046 10.854222263242228 3.7252249719271013 0.5
P 5.790938896444847 8.204984702497272 6.047734641185159 0.5
P 8.686336061893261 10.068052226278441 2.422040961881634 0.5
A 17.54105892470388 6.630727823971236 16.598071304047867 2.5
E 15.153175345830585 5.913704508700525 16.782162529009625 0.5
E 19.928942503577176 7.3477511392419474 16.41398007908611 0.5
E 18.18129765612582 4.3183160772570695 15.896041190414545 0.5
E 16.900820193281938 8.943139570685403 17.30010141768119 0.5
P 17.169432256477627 7.254129363124768 14.205736849911798 0.5
P 17.91268559293013 6.0073262848177045 18.990405758183936 0.5
A 13.873318270149056 2.342307101833001 15.811418145721733 2.5
E 16.30851605787439 1.8700909869884015 15.500253116290542 0.5
E 11.438120482423724 2.8145232166776006 16.122583175152926 0.5
E 14.198881742365659 4.637690352468561 14.875883989069932 0.5
E 13.547754797932454 0.046923851197441024 16.746952302373536 0.5
P 13.410911349549773 1.4715444053507736 13.51403873295616 0.5
P 14.33572519074834 3.2130697983152285 18.108797558487307 0.5
A 9.918878040905474 35.871278070758464 5.157283837104433 2.5
E 12.191975556518445 35.96371607798344 6.193856506689525 0.5
E 7.645780525292503 35.77884006353349 4.1207111675193415 0.5
E 8.887255045840446 35.74350589685405 7.430921510003339 0.5
E 10.950501035970502 35.999050244662875 2.883646164205528 0.5
P 9.781831769290555 38.36629900982739 5.235314811982583 0.5
P 10.055924312520393 33.37625713168954 5.079252862226284 0.5
A 32.26062667033874 2.7453411086938897 13.933999548926852 2.5
E 29.874792287307102 3.4752503778329853 13.775801080004744 0.5
E 34.64646105337037 2.015431839554794 14.092198017848961 0.5
E 31.58557805749082 0.41126569845489636 13.345440843604946 0.5
E 32.935675283186654 5.079416518932883 14.522558254248759 0.5
P 32.58016331461693 3.2643058841294947 11.509422906537315 0.5
P 31.94109002606054 2.2263763332582847 16.358576191316388 0.5
A 33.36491371045082 23.19179827330399 29.986087350823315 2.5
E 35.06503809396763 21.432012541449843 30.49866052465768 0.5
E 31.664789326934013 24.95158400515814 29.47351417698895 0.5
E 31.532193018024497 21.54950065216353 30.426534154818107 0.5
E 35.19763440287715 24.834095894444452 29.545640546828523 0.5
P 33.3382314293557 23.867085398576958 32.393009733102524 0.5
P 33.39159599154594 22.516511148031025 27.579164968544106 0.5
A 5.798998597877075 39.75301690991577 23.377253737626386 2.5
E 6.149292831694803 39.228670048278914 25.79641770859835 0.5
E 5.448704364059347 40.27736377155263 20.95808976665442 0.5
E 8.152444421862757 39.06631087770788 22.887633906638243 0.5
E 3.445552773891392 40.439722942123666 23.86687356861453 0.5
P 5.031804552461171 37.407063970484955 22.979864630254898 0.5
P 6.566192643292979 42.09896984934659 23.774642844997874 0.5
70
Properties=species:S:1:pos:R:3:radius:R:1
A 4.74577762208131 30.18273286232703 37.4751902116186 2.5
E 7.129059408690066 29.81768820771382 36.81434959107572 0.5
E 2.362495835472555 30.547777516940236 38.13603083216149 0.5
E 4.146703325480772 27.936596312482898 36.555418181923706 0.5
E 5.344851918681849 32.42886941217116 38.3949622413135 0.5
P 5.205209785489301 29.14754543987889 39.70393629128619 0.5
P 4.28634545867332 31.21792028477517 35.246444131951016 0.5
A 15.158982698679143 24.79157108217199 13.029987889394388 2.5
E 16.607741824196005 26.73302456339531 13.64793236625078 0.5
E 13.710223573162283 22.85011760094867 12.412043412537995 0.5
E 16.046397294917227 24.87281733366087 10.69420228686096 0.5
E 14.271568102441059 24.710324830683113 15.365773491927815 0.5
P 16.992992603400232 23.218625620032665 13.672055052952903 0.5
P 13.324972793958052 26.364516544311318 12.387920725835873 0.5
A 34.30355965853139 38.798090224896924 26.36537598620266 2.5
E 35.51792998150139 40.002379090380714 28.188832332584802 0.5
E 33.08918933556139 37.593801359413135 24.54191963982052 0.5
E 35.3465407357799 40.311832382645086 24.671039788053882 0.5
E 33.260578581282886 37.28434806714876 28.05971218435144 0.5
P 36.22384484339094 37.21433740064451 26.132498764299747 0.5
P 32.38327447367184 40.38184304914934 26.598253208105575 0.5
A 6.50819504485512 9.14004401217754 4.601868879311236 2.5
E 5.546379993483903 9.431673329935128 2.312793924667082 0.5
E 7.470010096226337 8.848414694419953 6.89094383395539 0.5
E 6.884710777042217 6.7131565445437165 4.13447918873537 0.5
E 6.131679312668023 11.566931479811364 5.0692585698871016 0.5
P 8.784847787451255 9.664610080909815 3.712103332010505 0.5
P 4.231542302258985 8.615477943445265 5.4916344266119665 0.5
A 17.57567613780861 6.602919703644853 16.920012482026817 2.5
E 15.442400046709501 7.464700296179219 17.89800395922805 0.5
E 19.70895222890772 5.741139111110487 15.942021004825582 0.5
E 16.27225996078245 5.214922571034456 15.299959942960859 0.5
E 18.87909231483477 7.990916836255249 18.540065021092772 0.5
P 17.591148326200745 8.49521940776116 15.286316536879763 0.5
P 17.560203949416476 4.710619999528545 18.55370842717387 0.5
A 14.363978465263298 1.406251654667131 15.681555944352544 2.5
E 16.246480604923136 2.384883584225263 14.359260500577658 0.5
E 12.481476325603461 0.4276197251089989 17.00385138812743 0.5
E 13.604365035108751 3.7058160419558863 16.302032426940315 0.5
E 15.123591895417844 -0.8933127326216244 15.061079461764773 0.5
P 12.904809821511884 1.4716976260097265 13.652629209862102 0.5
P 15.82314710901471 1.3408056833245356 17.710482678842986 0.5
A 9.903173753899477 35.977262551045925 4.834179575591798 2.5
E 12.32399165052732 36.34325140936778 4.328518753551172 0.5
E 7.482355857271633 35.61127369272407 5.339840397632424 0.5
E 10.52611619906149 34.43167024712782 6.697801624205972 0.5
E 9.280231308737463 37.52285485496403 2.970557526977624 0.5
P 9.94296598150875 37.907857429742535 6.422014577400393 0.5
P 9.863381526290203 34.046667672349315 3.246344573783203 0.5
A 32.45285124370172 2.5861752512049305 14.031583362921971 2.5
E 30.183400382666086 2.3276712917825377 13.015331183437013 0.5
E 34.72230210473736 2.8446792106273233 15.04783554240693 0.5
E 32.42803478425769 0.17724949226092646 14.699760608297096 0.5
E 32.477667703145755 4.995101010148934 13.363406117546846 0.5
P 33.50117225020958 1.969529168869713 11.84737396900953 0.5
P 31.404530237193867 3.202821333540148 16.21579275683441 0.5
A 34.18376947013876 23.26716718412269 29.644596838838275 2.5
E 34.40406690900727 25.746086111361894 29.88214681379875 0.5
E 33.96347203127026 20.788248256883488 29.4070468638778 0.5
E 32.997870260083914 23.16189644904746 31.84290553779948 0.5
E 35.36966868019361 23.37243791919792 27.44628813987707 0.5
P 31.993995029238565 23.573564025673754 28.477973989127083 0.5
P 36.37354391103896 22.960770342571628 30.811219688549468 0.5
A 5.132780044495856 39.45841467090305 23.007980588476464 2.5
E 6.257005674526447 40.54777473852444 24.9571884726842 0.5
E 4.008554414465266 38.36905460328167 21.058772704268726 0.5
E 7.3449742818609804 39.211996636745376 21.86979132099335 0.5
E 2.920585807130732 39.70483270506073 24.146169855959577 0.5
P 5.436611229455867 37.22177147282314 24.082742801959984 0.5
P 4.828948859535846 41.695057868982964 21.933218374992943 0.5
70
Properties=species:S:1:pos:R:3:radius:R:1
A 4.786503683951962 30.338023938992063 36.97262325926054 2.5
E 3.8780321007489587 31.94342588366605 35.28520986043029 0.5
E 5.694975267154966 28.732621994318077 38.66003665809078 0.5
E 6.898562417729064 30.142380255241786 35.64939559400913 0.5
E 2.6744449501748604 30.53366762274234 38.295850924511946 0.5
P 5.76828130011089 32.244436314384075 38.25780984780077 0.5
P 3.804726067793035 28.431611563600047 35.6874366707203 0.5
A 15.327078292071256 24.983116295140963 12.4770879366585 2.5
E 16.302407556739112 25.598073623577232 14.695321537901775 0.5
E 14.3517490274034 24.368158966704694 10.258854335415224 0.5
E 14.372547044746902 27.28340788179201 12.259077124395557 0.5
E 16.28160953939561 22.682824708489917 12.695098748921442 0.5
P 17.4217388668097 25.745012679555973 11.344872861661058 0.5
P 13.232417717332812 24.221219910725953 13.60930301165594 0.5
A 33.870865348716286 38.55495818976431 26.04015690806407 2.5
E 32.79819208655069 40.05483355530003 27.728275967992662 0.5
E 34.94353861088188 37.055082824228585 24.352037848135478 0.5
E 32.65512806609922 39.746319715607434 24.20913517842903 0.5
E 35.08660263133335 37.36359666392118 27.87117863769911 0.5
P 35.77385114274891 40.16151712195444 25.821951809337694 0.5
P 31.96787955468366 36.948399257574174 26.258362006790446 0.5
A 6.084318835412741 9.127638122955815 4.89983031207726 2.5
E 8.002431185197173 9.378303151402509 3.3161598737861384 0.5
E 4.16620648562831 8.876973094509122 6.483500750368381 0.5
E 4.484084817784735 9.58165767762446 3.03351915559677 0.5
E 7.684552853040747 8.673618568287171 6.766141468557749 0.5
P 5.983839472210626 6.682023008615206 4.391037023915758 0.5
P 6.184798198614857 11.573253237296424 5.408623600238761 0.5
A 18.037834070260836 6.58612409804651 17.122269694968615 2.5
E 16.426304850498312 6.706790969415821 19.029732166423265 0.5
E 19.64936329002336 6.4654572266771995 15.214807223513967 0.5
E 17.1082622078042 8.716675983237918 16.202136651850076 0.5
E 18.967405932717472 4.4555722128551025 18.042402738087155 0.5
P 19.707825006279002 7.888501988930575 18.450780930508564 0.5
P 16.36784313424267 5.283746207162445 15.793758459428666 0.5
A 14.948079963583556 0.42495901827644894 15.418567476762947 2.5
E 16.752769292608882 1.3880391386807818 13.981357294713447 0.5
E 13.143390634558228 -0.5381211021278838 16.855777658812446 0.5
E 13.36709438311798 2.1863924276159166 14.613684293421828 0.5
E 16.529065544049132 -1.3364743910630188 16.223450660104064 0.5
P 14.245526748471201 -1.06495004812572 13.537985132436972 0.5
P 15.65063317869591 1.9148680846786177 17.29914982108892 0.5
A 10.377119379000996 36.21374455866451 4.629788710517841 2.5
E 11.451906534546024 37.15932805817049 2.5802267046897986 0.5
E 9.302332223455968 35.26816105915853 6.6793507163458825 0.5
E 10.940672733168638 33.903166745557066 3.8593097772701896 0.5
E 9.813566024833355 38.52432237177195 5.400267643765492 0.5
P 12.562809244301707 36.344519231419085 5.836295153801136 0.5
P 8.191429513700285 36.08296988590993 3.423282267234545 0.5
A 32.23043697291344 2.5165700520625136 13.766045462370336 2.5
E 31.084122889744414 0.8590778280743228 12.286625457724096 0.5
E 33.37675105608246 4.174062276050704 15.245465467016576 0.5
E 33.66996169559458 0.6944330941368482 14.692104574604334 0.5
E 30.790912250232296 4.338707009988179 12.839986350136337 0.5
P 33.92269363061007 2.9438128799490895 11.976148546204119 0.5
P 30.538180315216803 2.0893272241759377 15.555942378536553 0.5
A 34.611087873441896 23.569290937257712 29.319487201858504 2.5
E 34.28178444595394 24.75569174418896 27.143708633630972 0.5
E 34.94039130092985 22.382890130326462 31.495265770086036 0.5
E 32.13304908396303 23.385335938563458 29.594231294232102 0.5
E 37.08912666292076 23.753245935951966 29.044743109484905 0.5
P 34.640803365756156 21.37643579298371 28.11927750945128 0.5
P 34.581372381127636 25.762146081531714 30.519696894265728 0.5
A 5.1391084840854875 39.20943035158219 23.051434931137866 2.5
E 6.209216622955447 38.920837231658986 25.29232372406375 0.5
E 4.069000345215528 39.4980234715054 20.810546138211983 0.5
E 7.385914549431085 39.60674225554377 22.029668932633207 0.5
E 2.8923024187398902 38.81211844762061 24.073200929642525 0.5
P 5.377291346302873 36.758133294490385 22.622003141394117 0.5
P 4.900925621868102 41.660727408674 23.480866720881615 0.5
70
Properties=species:S:1:pos:R:3:radius:R:1
A 4.822747726134412 30.454617502494266 36.28518533535604 2.5
E 4.390463789660314 28.211887104418054 35.26867613234128 0.5
E 5.25503166260851 32.69734790057048 37.3016945383708 0.5
E 3.7252143295896927 31.55397685713502 34.32640268972248 0.5
E 5.920281122679131 29.35525814785351 38.2439679809896 0.5
P 2.618535612535132 30.34705649231343 37.45986809565918 0.5
P 7.026959839733692 30.5621785126751 35.1105025750529 0.5
A 15.534027808974022 24.961656053893414 12.314691256186618 2.5
E 13.328337467947218 25.86323627458193 13.071053091001142 0.5
E 17.739718150000826 24.0600758332049 11.558329421372095 0.5
E 15.635926849125354 26.708714438003383 10.529361149980211 0.5
E 15.43212876882269 23.214597669783444 14.100021362393026 0.5
P 16.706438447409624 26.505981184225107 13.892827241046195 0.5
P 14.36161717053842 23.41733092356172 10.736555271327042 0.5
A 33.31235799685247 38.35480313112973 25.354443716416192 2.5
E 31.593012581376218 36.813562976229356 26.31279131890894 0.5
E 35.03170341232872 39.8960432860301 24.396096113923445 0.5
E 32.5441771364251 37.776778853507906 23.04667724206205 0.5
E 34.08053885727984 38.93282740875155 27.662210190770335 0.5
P 31.66804978123291 40.2364159285465 25.430494835037603 0.5
P 34.95666621247203 36.47319033371296 25.27839259779478 0.5
A 5.315680756588337 8.934070110640603 4.831429355539705 2.5
E 6.181628669965798 6.8347545686355575 5.876899807734517 0.5
E 4.449732843210876 11.033385652645649 3.7859589033448926 0.5
E 7.629362279889376 9.880988157455757 4.816462012746272 0.5
E 3.001999233287298 7.987152063825448 4.846396698333138 0.5
P 5.699102221886962 7.9613314675760956 2.5605776403816196 0.5
P 4.9322592912897125 9.906808753705109 7.10228107069779 0.5
A 18.05449480035819 6.556497800481847 16.721982978741753 2.5
E 16.18233237718061 5.710896271043113 18.146751701957996 0.5
E 19.926657223535766 7.402099329920581 15.297214255525509 0.5
E 17.021435452210067 8.833062885784468 16.715674604357854 0.5
E 19.08755414850631 4.279932715179227 16.728291353125652 0.5
P 19.34979254390913 7.1499701804579185 18.776245447308003 0.5
P 16.75919705680725 5.963025420505776 14.667720510175503 0.5
A 14.893688833522246 40.265047152033056 15.222221591458714 2.5
E 17.11761141416715 40.22511797594315 14.080917943783424 0.5
E 12.669766252877341 40.30497632812296 16.363525239134006 0.5
E 13.77586478776375 39.677543663771175 13.064605069922354 0.5
E 16.011512879280744 40.852550640294936 17.379838112995074 0.5
P 15.12743604318313 37.83538764663331 15.762700018224157 0.5
P 14.659941623861362 42.6947066574328 14.681743164693271 0.5
A 10.93493910905254 36.988374697495196 4.733494968734253 2.5
E 11.23303779929216 39.35896419278133 3.997667124933233 0.5
E 10.636840418812918 34.61778520220906 5.469322812535274 0.5
E 12.934642180049536 36.31996106156936 3.3902113653392094 0.5
E 8.935236038055542 37.656788333421034 6.076778572129297 0.5
P 12.405423654608525 37.41677714396795 6.7093862980167005 0.5
P 9.464454563496554 36.559972251022444 2.7576036394518058 0.5
A 32.23363886420911 2.3348007926732266 13.40240660401961 2.5
E 32.29524031374647 2.3927530689850967 10.903837654583572 0.5
E 32.172037414671756 2.2768485163613565 15.900975553455648 0.5
E 33.30174577878655 0.0746089957483127 13.376317139748839 0.5
E 31.165531949631678 4.5949925895981405 13.428496068290382 0.5
P 34.49314165917253 3.4016534417229147 13.482858731206496 0.5
P 29.974136069245695 1.2679481436235385 13.321954476832724 0.5
A 34.96172165882963 24.013116840703834 28.919572838084246 2.5
E 37.2074742364368 24.95166417240465 29.49029542071869 0.5
E 32.71596908122246 23.074569509003016 28.3488502554498 0.5
E 35.95757872674924 22.821632819032473 26.96032948250605 0.5
E 33.96586459091002 25.204600862375194 30.87881619366244 0.5
P 35.425255973035405 22.02578326722906 30.363747760763168 0.5
P 34.49818734462386 26.00045041417861 27.475397915405324 0.5
A 5.387681897780357 38.71344772087747 22.884723659973837 2.5
E 4.98175954730738 37.257650656288654 24.876175881877355 0.5
E 5.7936042482533345 40.16924478546628 20.893271438070318 0.5
E 6.786542536159407 36.91524433549126 21.85532893530176 0.5
E 3.9888212594013073 40.51165110626368 23.914118384645914 0.5
P 3.3558315194838575 37.76628380078574 21.778168397595937 0.5
P 7.419532276076858 39.660611640969194 23.991278922351736 0.5
70
Properties=species:S:1:pos:R:3:radius:R:1
A 4.491392264065014 30.580352361720788 35.91614545514697 2.5
E 6.660509717047083 30.301515164211285 37.12741722170305 0.5
E 2.322274811082944 30.85918955923029 34.70487368859089 0.5
E 5.724836102677534 30.762471767357958 33.749247022113835 0.5
E 3.2579484254524935 30.398232956083618 38.0830438881801 0.5
P 4.337945947199275 28.102635198811008 35.62055809333167 0.5
P 4.644838580930752 33.05806952463057 36.21173281696227 0.5
A 16.02280410204548 25.030751772201256 12.411755377161665 2.5
E 15.281046140821978 25.345232903434034 10.045133999530684 0.5
E 16.764562063268983 24.716270640968478 14.778376754792646 0.5
E 16.018678734826555 27.508795309201755 12.74233548859493 0.5
E 16.026929469264406 22.552708235200758 12.0811752657284 0.5
P 13.635383295336549 24.92876232750979 13.146479845833195 0.5
P 18.41022490875441 25.132741216892722 11.677030908490135 0.5
A 33.528031562331584 37.934188484355005 25.02866499763232 2.5
E 32.408031158989644 39.35303111803962 26.75565216531855 0.5
E 34.648031965673525 36.51534585067039 23.301677829946087 0.5
E 34.01843891061336 36.20557806666055 26.766884390168705 0.5
E 33.037624214049806 39.66279890204946 23.290445605095933 0.5
P 31.347412446285585 36.816695037091336 24.532571593062535 0.5
P 35.70865067837758 39.051681931618674 25.524758402202103 0.5
A 4.557296471836146 8.933794928890201 4.878502419445979 2.5
E 4.502305005866383 6.777238802804258 6.141926977427497 0.5
E 4.61228793780591 11.090351054976143 3.615077861464462 0.5
E 3.9197329463010457 10.167822079358873 6.957129308238802 0.5
E 5.194859997371246 7.6997677784215295 2.799875530653157 0.5
P 6.974006775032798 9.210277599136395 5.455623414970995 0.5
P 2.140586168639494 8.657312258644007 4.301381423920964 0.5
A 18.18950652230348 6.190778326798794 16.541947605892005 2.5
E 16.001698555374404 6.180569489108395 17.75165504138084 0.5
E 20.377314489232553 6.200987164489193 15.332240170403171 0.5
E 17.670043375537773 8.45641534502475 15.621596074791656 0.5
E 18.708969669069184 3.925141308572838 17.462299136992353 0.5
P 19.282051413370308 7.247558664087247 18.526780339329903 0.5
P 17.09696163123665 5.133997989510341 14.557114872454108 0.5
A 14.33084512875075 39.610672581177305 14.833610891681847 2.5
E 14.653239934655307 37.136228368457154 14.98588507617844 0.5
E 14.008450322846194 42.085116793897456 14.681336707185254 0.5
E 15.22534403548382 39.86998953677423 17.153659689098806 0.5
E 13.436346222017681 39.35135562558038 12.513562094264888 0.5
P 16.642972567924833 39.85537761724784 13.914814858635006 0.5
P 12.018717689576668 39.36596754510677 15.752406924728687 0.5
A 11.44631208229158 38.265117652114384 4.591812350522828 2.5
E 12.437659528483868 40.529153258487554 4.967808379755676 0.5
E 10.454964636099293 36.001082045741214 4.21581632128998 0.5
E 13.672397147252454 37.41619585412868 3.8342656097475634 0.5
E 9.220227017330707 39.11403945010009 5.349359091298092 0.5
P 12.004680710065866 37.62992118331473 6.944417273058329 0.5
P 10.887943454517295 38.90031412091404 2.2392074279873255 0.5
A 32.603009692964065 2.1982266852458245 13.308956374036336 2.5
E 32.57202813556089 4.688444615163272 13.090198963603218 0.5
E 32.63399125036724 -0.2919912446716233 13.527713784469455 0.5
E 35.07521847512106 2.1963292951637343 12.937230483980812 0.5
E 30.130800910807068 2.2001240753279148 13.68068226409186 0.5
P 32.973447110792726 2.4191589405400813 15.771468314726958 0.5
P 32.232572275135404 1.9772944299515678 10.846444433345715 0.5
A 35.459498404150274 24.262391803928313 28.706148554396073 2.5
E 34.3173329617662 25.88416574418951 30.22776197077828 0.5
E 36.60166384653435 22.640617863667117 27.184535138013867 0.5
E 36.435738988377466 23.091110212651543 30.68732339666643 0.5
E 34.48325781992308 25.433673395205084 26.724973712125717 0.5
P 33.46139619857309 22.763075719632912 28.804326227223292 0.5
P 37.45760060972746 25.761707888223714 28.607970881568853 0.5
A 5.942328741071957 38.714551494639444 22.721972363532487 2.5
E 6.344434831735909 41.111684911148025 23.30683309508506 0.5
E 5.540222650408006 36.31741807813086 22.137111631979913 0.5
E 8.040326108361647 38.07049527060463 23.919302153995794 0.5
E 3.844331373782267 39.35860771867426 21.52464257306918 0.5
P 4.6435917628119885 38.41631842513963 24.837235774448544 0.5
P 7.241065719331926 39.01278456413926 20.60670895261643 0.5
70
Properties=species:S:1:pos:R:3:radius:R:1
A 4.163203548469054 30.579226712302138 35.28904629796353 2.5
E 2.6556289474319446 32.450457906158384 35.97876554624473 0.5
E 5.670778149506164 28.707995518445895 34.59932704968233 0.5
E 6.109728825476088 32.14799605545032 35.28759924110061 0.5
E 2.2166782714620203 29.010457369153958 35.29049335482645 0.5
P 4.597090824478547 30.043076950444302 37.692020551795494 0.5
P 3.729316272459561 31.115376474159973 32.886072044131566 0.5
A 16.55612052493305 25.625474627199925 12.411901273312575 2.5
E 14.259587136832963 24.6587725309992 12.20837865898567 0.5
E 18.852653913033137 26.592176723400648 12.61542388763948 0.5
E 17.31821372204094 24.219585660447624 10.490263905835086 0.5
E 15.794027327825159 27.031363593952225 14.333538640790064 0.5
P 15.9275122556085 27.452757656827536 10.825746056011468 0.5
P 17.184728794257598 23.798191597572313 13.998056490613681 0.5
A 33.99484613335033 37.775446791577245 25.31251119913363 2.5
E 34.20069653206683 38.11588500803723 22.844368692283215 0.5
E 33.78899573463383 37.43500857511726 27.780653705984047 0.5
E 36.285959075780454 38.722697101731754 25.634253852416364 0.5
E 31.703733190920204 36.82819648142274 24.990768545850898 0.5
P 33.015853233285426 40.06385642944495 25.5465074190535 0.5
P 34.97383903341523 35.487037153709544 25.07851497921376 0.5
A 4.257417018554582 8.91584489389236 4.923531197912955 2.5
E 2.575369605683082 7.238964913283155 5.703781178036796 0.5
E 5.939464431426082 10.592724874501563 4.143281217789114 0.5
E 2.5483776460817333 10.728232918718145 5.134325103907836 0.5
E 5.966456391027431 7.103456869066572 4.712737291918074 0.5
P 4.964453739092342 9.30740993076241 7.289281797133222 0.5
P 3.5503802980168224 8.524279857022309 2.557780598692688 0.5
A 18.40152693859547 5.601044327501338 16.335770400998754 2.5
E 17.310725985352075 7.611141793867728 17.345553276726427 0.5
E 19.492327891838865 3.590946861134948 15.325987525271081 0.5
E 16.58170179738613 5.472160488437459 14.62649411804954 0.5
E 20.22135207980481 5.729928166565217 18.04504668394797 0.5
P 19.7237938314079 7.081887712784773 14.816325392965693 0.5
P 17.07926004578304 4.120200942217903 17.855215409031818 0.5
A 13.726633587401619 39.25081785827924 15.055035888262411 2.5
E 13.997614238805006 39.640321162344115 17.50959423197521 0.5
E 13.45565293599823 38.86131455421437 12.600477544549614 0.5
E 15.814560273213633 40.5543810026047 14.617674157617223 0.5
E 11.638706901589604 37.94725471395378 15.4923976189076 0.5
P 15.074643840048688 37.15343608452382 15.239041469372067 0.5
P 12.378623334754549 41.348199632034664 14.871030307152756 0.5
A 11.86837649346486 39.35857136810308 4.173316790343085 2.5
E 12.55157339384441 40.33397490124246 6.371459174913955 0.5
E 11.185179593085309 38.38316783496369 1.975174405772215 0.5
E 13.743428946019343 37.71167437237481 4.321332281513921 0.5
E 9.993324040910377 41.00546836383135 4.025301299172249 0.5
P 10.362580924512315 37.750367950311556 5.354951874251173 0.5
P 13.374172062417404 40.9667747858946 2.9916817064349974 0.5
A 32.71789178812292 2.0126998171797745 13.309031704877151 2.5
E 31.537191673082468 3.4274252435088632 11.619505378819316 0.5
E 33.89859190316337 0.5979743908506856 14.998558030934987 0.5
E 31.6854863481094 3.35095363897282 15.151100030398178 0.5
E 33.75029722813644 0.674445995386729 11.466963379356125 0.5
P 30.77107740411632 0.445017235610621 13.356834190907856 0.5
P 34.66470617212952 3.5803823987489283 13.261229218846447 0.5
A 36.305915630247604 24.527757215373907 29.276677654775977 2.5
E 35.68993789907767 23.7430602298582 26.984337785640857 0.5
E 36.92189336141754 25.31245420088961 31.569017523911096 0.5
E 33.970372019319804 25.349539272474757 29.622958309855843 0.5
E 38.641459241175404 23.705975158273056 28.93039699969611 0.5
P 35.66108427542823 22.300892852295014 30.212235046009756 0.5
P 36.95074698506698 26.7546215784528 28.341120263542198 0.5
A 6.523931235827883 38.71837700654415 22.315106938706016 2.5
E 5.6446785512582025 41.05362696202352 22.161736921707135 0.5
E 7.403183920397563 36.38312705106478 22.468476955704897 0.5
E 8.22909442782892 39.245420312908195 20.56449451961797 0.5
E 4.818768043826845 38.19133370018011 24.065719357794062 0.5
P 8.126845208979734 39.438677637290844 24.093261542789723 0.5
P 4.92101726267603 37.99807637579746 20.53695233462231 0.5
70
Properties=species:S:1:pos:R:3:radius:R:1
A 3.9273696735003507 30.593389423542565 34.98091966531369 2.5
E 6.244565670951527 31.485797658878315 34.690729639806946 0.5
E 1.6101736760491745 29.700981188206814 35.27110969082044 0.5
E 4.762437210210848 28.98511415489209 36.703160319049964 0.5
E 3.0923021367898538 32.20166469219304 33.25867901157742 0.5
P 3.4992751529433432 32.28662839124754 36.76968373016878 0.5
P 4.355464194057358 28.900150455837593 33.192155600458605 0.5
A 16.246669622581884 26.081025058215406 12.328428408917658 2.5
E 14.620012660242184 27.823566313543726 13.08177899154861 0.5
E 17.873326584921585 24.338483802887087 11.575077826286705 0.5
E 14.417641857023343 24.37673459857446 12.32125470746151 0.5
E 18.075697388140426 27.785315517856354 12.335602110373806 0.5
P 15.738098526581021 26.636852371915857 9.944647496657298 0.5
P 16.755240718582748 25.525197744514955 14.712209321178017 0.5
A 33.85128628956845 37.70197544357969 25.161571376390132 2.5
E 33.16775005470887 35.31570734892261 24.86407718139542 0.5
E 34.53482252442803 40.088243538236775 25.459065571384844 0.5
E 34.79565138879172 37.151173981762426 27.409857903732433 0.5
E 32.90692119034518 38.252776905396956 22.91328484904783 0.5
P 36.06283614770028 37.19963857445547 24.109570951050173 0.5
P 31.639736431436614 38.20431231270391 26.21357180173009 0.5
A 3.607874823391596 8.647968690837935 4.536104772784868 2.5
E 3.7917554447946102 10.324248505542442 2.690495415449042 0.5
E 3.423994201988582 6.9716888761334275 6.381714130120693 0.5
E 5.479325306631719 9.77795428811139 5.748872532388395 0.5
E 1.7364243401514727 7.51798309356448 3.323337013181341 0.5
P 1.96049478045929 10.11875709600289 5.707821658973498 0.5
P 5.255254866323902 7.17718028567298 3.364387886596238 0.5
A 18.276849466263094 4.856005004929545 15.311232648310394 2.5
E 16.68504813637347 6.450500844956786 14.227834502521162 0.5
E 19.868650796152718 3.2615091649023045 16.394630794099626 0.5
E 17.886228050908187 5.965079016790716 17.51744427598404 0.5
E 18.667470881618 3.746930993068375 13.10502102063675 0.5
P 16.389103870047904 3.2819853569098365 15.768265154397389 0.5
P 20.164595062478284 6.430024652949254 14.8542001422234 0.5
A 12.948075313381576 38.99897703895271 15.982125830786687 2.5
E 11.831211533040957 40.25096315224666 17.835540535671914 0.5
E 14.064939093722195 37.74699092565876 14.12871112590146 0.5
E 14.807026535329594 40.670569092645614 15.973161431692104 0.5
E 11.089124091433558 37.327384985259805 15.991090229881271 0.5
P 14.191825951807003 37.62481883184835 17.659854524964178 0.5
P 11.70432467495615 40.37313524605707 14.304397136609197 0.5
A 12.327892974752515 40.04238910335464 3.5309926039657844 2.5
E 11.3003770675153 38.3957262349454 5.106655149745432 0.5
E 13.355408881989732 41.689051971763874 1.9553300581861366 0.5
E 12.513546152226041 38.25926148306481 1.788583700335645 0.5
E 12.14223979727899 41.82551672364446 5.273401507595924 0.5
P 10.056385995220092 40.64151954621151 2.6758325286736424 0.5
P 14.599399954284939 39.44325866049776 4.386152679257926 0.5
A 32.35981470300542 1.878775412327563 12.935056764128596 2.5
E 33.15783354782324 3.3550841666875977 11.082038041849525 0.5
E 31.5617958581876 0.4024666579675287 14.788075486407667 0.5
E 30.116292532427632 2.978065736844739 12.844673952985882 0.5
E 34.6033368735832 0.7794850878103874 13.02543957527131 0.5
P 31.59838565611873 0.18700910334040133 11.25930243776259 0.5
P 33.12124374989211 3.570541721314725 14.610811090494602 0.5
A 37.3578971776029 25.106862723567062 29.74779554500431 2.5
E 39.25852653170447 26.181366427929095 30.965600885623637 0.5
E 35.45726782350133 24.03235901920503 28.52999020438498 0.5
E 38.911329339168994 24.450936466324297 27.902095335199682 0.5
E 35.80446501603681 25.762788980809827 31.593495754808934 0.5
P 37.83166566298452 22.94695473145883 30.914132069291977 0.5
P 36.88412869222128 27.266770715675293 28.58145902071664 0.5
A 6.524498245660584 39.069612269223136 21.99885444165344 2.5
E 6.528397006031109 41.567499573469696 21.896171361475517 0.5
E 6.520599485290059 36.571724964976575 22.10153752183136 0.5
E 5.805281491775098 38.97239072747224 19.606517669216622 0.5
E 7.24371499954607 39.16683381097403 24.391191214090256 0.5
P 8.91880650914743 39.0363408534608 21.2803970996385 0.5
P 4.130189982173738 39.10288368498547 22.71731178366838 0.5
70
Properties=species:S:1:pos:R:3:radius:R:1
A 3.632038745143316 30.208138207118083 35.01700797258971 2.5
E 4.368863368989533 28.042035760257725 36.02452455478676 0.5
E 2.8952141212970983 32.37424065397844 34.00949139039266 0.5
E 1.782944065332277 29.02344824264425 33.82228685317646 0.5
E 5.481133424954355 31.392828171591916 36.21172909200296 0.5
P 2.1194454955249817 30.601215652137665 36.9683028717345 0.5
P 5.14463199476165 29.8150607620985 33.06571307344492 0.5
A 16.14749569624247 26.64248259615889 12.12936422609391 2.5
E 15.673788002061581 29.030098174553203 11.559370480266413 0.5
E 16.621203390423357 24.254867017764575 12.699357971921408 0.5
E 13.69288889556977 26.17641991303941 12.217062740874109 0.5
E 18.60210249691517 27.108545279278367 12.041665711313712 0.5
P 16.170000686022647 26.066221001731403 9.696790260060661 0.5
P 16.12499070646229 27.218744190586374 14.56193819212716 0.5
A 33.07089647746428 37.5706307377179 24.82998996304103 2.5
E 30.62704727480401 37.17962320396789 24.47684100975427 0.5
E 35.514745680124555 37.961638271467905 25.18313891632779 0.5
E 32.55998629254114 39.738708747879926 25.965070808088512 0.5
E 33.58180666238742 35.40255272755587 23.694909117993546 0.5
P 32.94216475022274 36.388873211656545 27.02928014216674 0.5
P 33.199628204705824 38.75238826377925 22.63069978391532 0.5
A 3.032908973853439 8.48365720385823 3.8542822998369464 2.5
E 4.636416891658255 7.225985118417036 2.406172054365904 0.5
E 1.4294010560486228 9.741329289299426 5.302392545307988 0.5
E 1.436526248620501 6.562260217287628 3.7553084923209656 0.5
E 4.6292916990863775 10.405054190428833 3.953256107352927 0.5
P 4.096076200640488 7.495479818214161 5.889762808804431 0.5
P 1.9697417470663903 9.4718345895023 1.8188017908694616 0.5
A 18.166992524033382 4.381704849187268 14.637923272158233 2.5
E 16.43299056049434 3.8659071792388717 16.363376822422815 0.5
E 19.900994487572426 4.8975025191356645 12.912469721893652 0.5
E 16.631552580699026 6.056830994164967 13.595629369831425 0.5
E 19.70243246736774 2.7065787042095693 15.68021717448504 0.5
P 19.108088359141703 6.164372839052477 16.116582620031775 0.5
P 17.22589668892506 2.5990368593220596 13.15926392428469 0.5
A 12.028919948278133 39.18110064352913 16.655179093641806 2.5
E 11.56211817162156 41.63318052419436 16.51589391801518 0.5
E 12.495721724934707 36.7290207628639 16.79446426926843 0.5
E 14.398162761710822 39.66803914659441 17.28730201304308 0.5
E 9.659677134845445 38.694162140463845 16.02305617424053 0.5
P 11.381784265202233 39.19507036334082 19.069929651074304 0.5
P 12.676055631354034 39.16713092371744 14.240428536209308 0.5
A 12.575883546240712 0.3774618715291477 3.109366607849825 2.5
E 11.798031492452829 -1.802246985436768 4.054784759398963 0.5
E 13.353735600028596 2.5571707284950635 2.163948456300688 0.5
E 14.883797470319154 -0.5520226729134804 2.8652522889674454 0.5
E 10.267969622162271 1.3069464159717756 3.353480926732205 0.5
P 12.011543665088318 -0.4193616851651162 0.8079338545341259 0.5
P 13.140223427393106 1.1742854282234116 5.410799361165525 0.5
A 31.917662380112002 1.6007007841560588 12.355477769562084 2.5
E 32.98718054109434 1.6577956706699482 10.096524233682178 0.5
E 30.848144219129665 1.5436058976421694 14.61443130544199 0.5
E 29.746319121897574 2.3186029805522743 11.345584264573738 0.5
E 34.08900563832643 0.8827985877598434 13.36537127455043 0.5
P 31.29204320014937 -0.7933244058419191 11.998764956055998 0.5
P 32.54328156007463 3.9947259741540364 12.71219058306817 0.5
A 38.0638547706718 25.416187901067964 30.06083954607209 2.5
E 37.6190572583253 26.8520663190949 32.05844019226141 0.5
E 38.50865228301831 23.98030948304103 28.06323889988277 0.5
E 39.822753100983356 27.021086217713023 29.298882817078745 0.5
E 36.30495644036025 23.811289584422905 30.822796275065432 0.5
P 39.78386402548375 24.146323907612178 31.356607118396283 0.5
P 36.343845515859854 26.68605189452375 28.765071973747894 0.5
A 6.51813138124554 39.492621320314235 22.131169528056958 2.5
E 7.519527452577419 41.78261263950667 22.1872557683282 0.5
E 5.516735309913662 37.202630001121804 22.075083287785716 0.5
E 4.487053226637483 40.35195996401423 23.30856437487818 0.5
E 8.549209535853597 38.63328267661424 20.953774681235735 0.5
P 5.458920619310792 40.00980296487497 19.926493654298085 0.5
P 7.577342143180289 38.9754396757535 24.33584540181583 0.5
70
Properties=species:S:1:pos:R:3:radius:R:1
A 3.247817517287704 29.738246408619933 35.12086253644064 2.5
E 3.5365909907877966 27.711668596836496 33.685734579151784 0.5
E 2.9590440437876118 31.76482422040337 36.555990493729496 0.5
E 4.504764627960531 31.103578742273335 33.44576505281346 0.5
E 1.9908704066148766 28.37291407496653 36.795960020067824 0.5
P 1.1061607189242815 30.266308896844528 33.944233382222485 0.5
P 5.3894743156511264 29.210183920395338 36.297491690658795 0.5
A 15.934663938559286 27.066299123385477 12.110166815501165 2.5
E 16.75663430690024 27.85140139025435 9.88351481212775 0.5
E 15.112693570218333 26.281196856516605 14.33681881887458 0.5
E 15.568033493130175 24.779609965973876 11.168553936521315 0.5
E 16.3012943839884 29.352988280797078 13.051779694481015 0.5
P 18.2670332982564 26.43016460307265 12.746866149576897 0.5
P 13.602294578862171 27.702433643698303 11.473467481425432 0.5
A 32.382254870115034 37.210300637362096 24.693175214941114 2.5
E 30.94830242261772 35.963634276100336 23.068489595501212 0.5
E 33.816207317612346 38.456966998623855 26.317860834381015 0.5
E 32.238215688606424 39.2501699331969 23.25505631509287 0.5
E 32.526294051623644 35.17043134152729 26.13129411478936 0.5
P 30.33945456354888 37.941570929120736 25.93503296359208 0.5
P 34.42505517668119 36.479030345603455 23.45131746629015 0.5
A 2.791887604988926 8.147479802289583 3.2949064720443957 2.5
E 3.269659034782861 9.543702802693977 1.2769134606557362 0.5
E 2.3141161751949912 6.751256801885189 5.312899483433055 0.5
E 1.5787854495773166 10.0689669357136 4.337149417149191 0.5
E 4.004989760400536 6.225992668865565 2.2526635269396005 0.5
P 0.6587871335137954 7.367448694431209 2.2501893575273266 0.5
P 4.924988076464057 8.927510910147957 4.339623586561465 0.5
A 17.55291781176983 4.411466501812396 14.22376871285169 2.5
E 17.610584687086018 3.7411997006930777 16.631551291659523 0.5
E 17.495250936453644 5.081733302931714 11.815986134043857 0.5
E 17.85777957200921 2.0229134025877302 13.551553420456502 0.5
E 17.24805605153045 6.800019601037062 14.895984005246879 0.5
P 15.072245757943092 4.102344345531941 14.197129383627624 0.5
P 20.033589865596568 4.720588658092851 14.250408042075756 0.5
A 11.385918977090284 39.53179376600502 16.827947312615688 2.5
E 11.844266552326266 41.903221281694925 16.18277366304027 0.5
E 10.927571401854303 37.16036625031512 17.473120962191107 0.5
E 9.869539929277325 40.32115715856885 18.652090952200123 0.5
E 12.902298024903244 38.742430373441195 15.003803673031253 0.5
P 9.451878624969492 39.474899369872425 15.244832994551592 0.5
P 13.319959329211077 39.58868816213762 18.411061630679782 0.5
A 12.884661039382275 0.8740479526768061 2.9420631460901854 2.5
E 14.15578116429369 -1.2158733439767178 3.458282674813735 0.5
E 11.613540914470859 2.9639692493303302 2.4258436173666356 0.5
E 15.015086405609395 2.1813713171474713 2.9888966772560672 0.5
E 10.754235673155154 -0.43327541179385887 2.8952296149243035 0.5
P 13.193758737493324 0.45795349885714703 0.4963885932276635 0.5
P 12.575563341271225 1.2901424064964653 5.387737698952707 0.5
A 31.761420464245216 1.8154681057406268 11.996040650115365 2.5
E 33.11719369488369 3.7076177854332677 11.084092988939224 0.5
E 30.405647233606746 -0.07668157395201392 12.907988311291506 0.5
E 29.68490641590298 2.859488453724051 11.075111271696276 0.5
E 33.83793451258745 0.7714477577572023 12.916970028534454 0.5
P 32.07759818977775 0.5585706943990822 9.858228557521288 0.5
P 31.44524273871268 3.0723655170821713 14.133852742709442 0.5
A 38.01840405511351 25.377119044034355 30.489982805449294 2.5
E 37.25870846721445 27.757988093738618 30.424216690401316 0.5
E 38.77809964301257 22.996249994330093 30.555748920497273 0.5
E 38.425032371522526 25.438751376866414 28.024043863008604 0.5
E 37.61177573870449 25.315486711202297 32.95592174788999 0.5
P 40.365213810083546 26.13716116373002 30.895963039287658 0.5
P 35.67159430014347 24.61707692433869 30.08400257161093 0.5
A 6.678140558575854 40.2968398247155 21.826972042444012 2.5
E 6.527176366822888 42.72165731526758 22.416437860218448 0.5
E 6.82910475032882 37.87202233416342 21.237506224669577 0.5
E 5.574901706670747 39.702290359214345 23.990158342493736 0.5
E 7.781379410480961 40.89138929021665 19.66378574239429 0.5
P 4.439821133547583 40.42634299297173 20.72100862489526 0.5
P 8.916459983604124 40.16733665645926 22.932935459992766 0.5
70
Properties=species:S:1:pos:R:3:radius:R:1
A 2.2474561054449262 29.553377850098776 34.84928997139447 2.5
E 4.460221497530105 28.70872595245525 34.04914467746366 0.5
E 0.03469071335974716 30.398029747742303 35.64943526532528 0.5
E 2.3038838104095136 27.914007461475787 36.73589555895665 0.5
E 2.191028400480339 31.192748238721766 32.96268438383229 0.5
P 3.4095599018869036 31.241284216197204 36.28124208846468 0.5
P 1.085352309002949 27.86547148400035 33.41733785432426 0.5
A 16.00947599692887 27.082378504022365 12.678103094969426 2.5
E 16.0682099565328 28.369150053364486 10.535495034265635 0.5
E 15.95074203732494 25.795606954680245 14.820711155673218 0.5
E 17.487837373227592 28.792552040276302 13.745695768682019 0.5
E 14.531114620630149 25.37220496776843 11.610510421256834 0.5
P 13.994284203809084 28.374479682607202 13.398850333078792 0.5
P 18.024667790048657 25.79027732543753 11.95735585686006 0.5
A 31.55403317601163 37.01215985432409 24.816617010586764 2.5
E 30.8418550478288 36.94765618195616 22.42107081191118 0.5
E 32.26621130419446 37.076663526692016 27.21216320926235 0.5
E 30.65363840647147 39.335350088813556 25.02174232193935 0.5
E 32.454427945551785 34.68896961983462 24.61149169923418 0.5
P 29.333201896350175 36.090950643219564 25.501658627317784 0.5
P 33.77486445567308 37.933369065428614 24.131575393855744 0.5
A 2.644786875481989 7.872184478927022 2.9414542743849346 2.5
E 4.9852798249618955 8.729720028338457 2.749815199742869 0.5
E 0.3042939260020825 7.014648929515588 3.1330933490270003 0.5
E 3.3569172837805605 6.340409818064828 4.784423799340844 0.5
E 1.9326564671834174 9.403959139789217 1.0984847494290253 0.5
P 2.1300412732564356 9.65215615562172 4.619768248334181 0.5
P 3.1595324777075424 6.092212802232326 1.2631403004356878 0.5
A 17.327466931619107 4.356232721150704 13.99642163313945 2.5
E 15.357557220144162 4.14327817820698 15.520923548939557 0.5
E 19.29737664309405 4.5691872640944275 12.471919717339343 0.5
E 18.728576606675375 5.133513251930994 15.915464794440283 0.5
E 15.92635725656284 3.578952190370414 12.077378471838617 0.5
P 17.964920778656122 1.9896982635288842 14.489541551402919 0.5
P 16.69001308458209 6.722767178772523 13.503301714875981 0.5
A 10.517896613956292 39.874366631997226 16.39684762867182 2.5
E 10.516512114723925 41.91333545408339 14.95026398929086 0.5
E 10.51928111318866 37.835397809911065 17.843431268052782 0.5
E 8.516224364438921 39.0068041128339 15.175928515520889 0.5
E 12.519568863473664 40.741929151160555 17.617766741822756 0.5
P 12.015663714902285 38.71680824560552 14.76382824929499 0.5
P 9.0201295130103 41.03192501838893 18.029867008048654 0.5
A 13.371853556927825 1.2252363404435356 3.145318101007919 2.5
E 14.027608582180573 0.5294098847840324 5.455255522336982 0.5
E 12.716098531675076 1.9210627961030387 0.8353806796788561 0.5
E 15.757566320191792 1.7677728943257385 2.631480871043711 0.5
E 10.986140793663857 0.6826997865613327 3.6591553309721268 0.5
P 13.73012713682374 -1.1138830732038774 2.3389928498576102 0.5
P 13.01357997703191 3.5643557540909487 3.9516433521582277 0.5
A 32.08190032229791 1.8205627643866094 12.2141340336335 2.5
E 32.315672290265866 4.2748207586083815 12.628824719316745 0.5
E 31.84812835432996 -0.6336952298351624 11.799443347950254 0.5
E 29.62164602308206 2.111570219691628 11.878778335682297 0.5
E 34.54215462151377 1.5295553090815905 12.549489731584702 0.5
P 32.45939131581144 2.1973018767136256 9.771682766758202 0.5
P 31.704409328784383 1.443823652059593 14.656585300508796 0.5
A 38.13811994933386 25.53214028816551 30.51887438951546 2.5
E 36.2836632615795 23.893700076272424 30.8745484893545 0.5
E 39.99257663708823 27.1705805000586 30.16320028967642 0.5
E 39.49379638484405 23.75473541053834 29.399511488937197 0.5
E 36.78244351382367 27.30954516579268 31.638237290093723 0.5
P 37.15164552217067 26.169592696616796 28.31194833014823 0.5
P 39.12459437649706 24.894687879714226 32.72580044888269 0.5
A 7.191095374680249 0.47954685899336275 21.505735578342858 2.5
E 8.21203965619246 0.6659489488058314 23.780142541699373 0.5
E 6.17015109316804 0.29314476918089405 19.231328614986342 0.5
E 5.282765707149937 -0.8170397449233431 22.468617221417922 0.5
E 9.099425042210562 1.7761334629100685 20.542853935267793 0.5
P 5.939715874258929 2.608893575585293 21.892945994612873 0.5
P 8.44247487510157 -1.6497998575985675 21.118525162072842 0.5
70
Properties=species:S:1:pos:R:3:radius:R:1
A 1.635494274395532 29.752206466707964 34.90985085538548 2.5
E 0.7317207733514398 27.44760765198153 35.25916126458361 0.5
E 2.5392677754396242 32.0568052814344 34.560540446187346 0.5
E -0.5470879051233966 30.45739093298046 33.91534097701497 0.5
E 3.8180764539144607 29.04702200043547 35.904360733755986 0.5
P 0.8172470694146362 30.416690606241513 37.176772190556036 0.5
P 2.453741479376428 29.087722327174415 32.64292952021492 0.5
A 15.909912801734935 26.73066390455482 13.039467683652303 2.5
E 13.787124894842238 27.964083362704425 12.567823811002722 0.5
E 18.032700708627633 25.497244446405215 13.511111556301884 0.5
E 16.189838508023747 28.023595675114024 15.160780728829087 0.5
E 15.629987095446122 25.437732133995617 10.918154638475519 0.5
P 14.619403948100572 24.98223493060809 14.27542197963365 0.5
P 17.200421655369297 28.47909287850155 11.803513387670955 0.5
A 31.197011458676034 36.76214182565137 25.12820404184761 2.5
E 33.020204629943855 38.07915786500765 26.219732975188784 0.5
E 29.373818287408213 35.44512578629509 24.036675108506437 0.5
E 29.515049276850544 38.43285118097132 25.921761518628895 0.5
E 32.87897364050153 35.09143247033142 24.334646565066326 0.5
P 31.50841132886141 38.07522940922107 23.023725218308666 0.5
P 30.885611588490658 35.449054242081665 27.232682865386554 0.5
A 2.589167624533118 7.779244686437484 3.162211035114604 2.5
E 4.103760062604857 9.350753369060767 1.9430432013137302 0.5
E 1.074575186461379 6.207736003814201 4.381378868915478 0.5
E 3.565347053159755 5.856761693788403 1.8968522456400991 0.5
E 1.612988195906481 9.701727679086565 4.427569824589109 0.5
P 4.322108324517181 7.488694168603072 4.940552095463849 0.5
P 0.8562269245490546 8.069795204271896 1.3838699747653596 0.5
A 17.416177915771126 4.219891452183312 13.973839323901162 2.5
E 18.783318879735752 3.3395968276923735 15.8727882328358 0.5
E 16.0490369518065 5.10018607667425 12.074890414966523 0.5
E 15.544733596157107 4.7215394349089985 15.55372712371908 0.5
E 19.287622235385143 3.718243469457625 12.393951524083244 0.5
P 18.353526166548882 6.505374043567773 14.358478871067431 0.5
P 16.47882966499337 1.9344088607988499 13.589199776734892 0.5
A 9.570689313988526 40.15636202352593 16.01313726363828 2.5
E 10.419580637279015 41.41459646623713 14.026625343608703 0.5
E 8.721797990698036 38.89812758081473 17.99964918366786 0.5
E 10.662624496448998 38.074957803077865 15.161413113218533 0.5
E 8.478754131528053 42.237766243973994 16.86486141405803 0.5
P 11.653250496414957 40.73481042941747 17.269455839149444 0.5
P 7.488128131562094 39.57791361763439 14.756818688127117 0.5
A 13.803236432753767 1.2924205541837481 2.996778600188758 2.5
E 12.344740138952183 2.985024738431688 1.8752262668447122 0.5
E 15.261732726555351 -0.40018363006419166 4.118330933532804 0.5
E 12.829048449433182 1.9206800354892306 5.211783746300072 0.5
E 14.777424416074352 0.6641610728782658 0.7817734540774444 0.5
P 12.021735286496241 -0.4368512866822851 2.703738387475573 0.5
P 15.584737579011293 3.021692395049781 3.2898188129019434 0.5
A 32.502182013386076 1.6547002823176065 12.662289851284198 2.5
E 32.73486197730706 4.128340713128268 12.93971200874456 0.5
E 32.26950204946509 -0.818940148493055 12.384867693823836 0.5
E 30.031156120477213 1.85068586225521 12.987283218957858 0.5
E 34.97320790629494 1.458714702380003 12.337296483610539 0.5
P 32.202363616743924 1.9591549940839976 10.199077262505153 0.5
P 32.80200041002823 1.3502455705512153 15.125502440063244 0.5
A 38.14509558776264 25.715361813101815 30.283097204174947 2.5
E 39.38790732234121 24.707635944089834 32.2040104154678 0.5
E 36.902283853184066 26.723087682113796 28.3621839928821 0.5
E 40.27194734491362 26.716755084887115 29.43238390445025 0.5
E 36.01824383061166 24.713968541316515 31.133810503899642 0.5
P 38.5716170942534 23.658252168929018 28.927966466440143 0.5
P 37.71857408127188 27.772471457274612 31.63822794190975 0.5
A 7.72470218915607 0.9929418233423567 21.36856411071941 2.5
E 6.360164333759472 -1.0991433039896958 21.262657259244843 0.5
E 9.089240044552668 3.085026950674409 21.47447096219398 0.5
E 5.712004942929671 2.267312375136955 22.12687110116258 0.5
E 9.73739943538247 -0.2814287284522413 20.610257120276245 0.5
P 8.305293470718146 0.49378301422612403 23.748428444470257 0.5
P 7.144110907593994 1.4921006324585893 18.988699776968566 0.5
70
Properties=species:S:1:pos:R:3:radius:R:1
A 1.2088384489934678 29.61485359653458 34.78690945459829 2.5
E -0.43560946872696826 30.08247952739838 32.96287079418264 0.5
E 2.853286366713904 29.14722766567078 36.61094811501393 0.5
E 2.10987082224721 27.68381536156375 33.479533457636556 0.5
E 0.3078060757397256 31.54589183150541 36.09428545156002 0.5
P 2.8622989741514955 31.132225444127226 33.68525117369643 0.5
P -0.4446220761645596 28.097481748941934 35.888567735500146 0.5
A 15.483525627958217 26.713255793114598 13.165497626993174 2.5
E 13.539562127408177 26.779910596083152 14.736027170099685 0.5
E 17.427489128508256 26.646600990146045 11.594968083886663 0.5
E 16.53773197660119 24.91574417182217 14.546656903036093 0.5
E 14.429319279315242 28.510767414407027 11.784338350950256 0.5
P 14.317483226066255 24.977021618655467 11.795886000133157 0.5
P 16.64956802985018 28.44948996757373 14.535109253853191 0.5
A 30.837042266587083 36.86082314725187 25.215698148629414 2.5
E 28.730587628004407 37.671265563565704 26.290887408914834 0.5
E 32.94349690516976 36.05038073093804 24.140508888343994 0.5
E 30.127593253304457 37.88949795830232 23.050401348959028 0.5
E 31.54649127986971 35.83214833620142 27.3809949482998 0.5
P 31.981389658398687 38.99037972620203 25.85245385053106 0.5
P 29.69269487477548 34.73126656830171 24.57894244672777 0.5
A 2.477363214623262 7.448540987163424 3.8438717574532997 2.5
E 4.078329846171724 7.560030616126506 1.9269795050558787 0.5
E 0.8763965830747995 7.337051358200343 5.760764009850721 0.5
E 3.4743503393995963 5.267290683945474 4.549678946238616 0.5
E 1.4803760898469274 9.629791290381375 3.138064568667984 0.5
P 4.118375864695711 8.664977248273921 5.285176827505065 0.5
P 0.8363505645508127 6.232104726052927 2.402566687401534 0.5
A 17.441177996359645 3.9869173460838963 13.930693866750103 2.5
E 18.11178560056439 4.312856158217484 11.544473145205373 0.5
E 16.7705703921549 3.6609785339503094 16.316914588294832 0.5
E 19.67476143110451 2.976309660926649 14.420364313822585 0.5
E 15.20759456161478 4.9975250312411434 13.44102341967762 0.5
P 18.34195015468706 6.250197266342939 14.492986958772505 0.5
P 16.540405838032232 1.7236374258248532 13.3684007747277 0.5
A 8.69316481971682 40.18827983738732 15.483104869211642 2.5
E 7.959393087070141 42.57305308103742 15.326785898061418 0.5
E 9.4269365523635 37.80350659373722 15.639423840361866 0.5
E 11.08186146803348 40.92528341446581 15.513992564115465 0.5
E 6.304468171400161 39.45127626030883 15.452217174307819 0.5
P 8.61761770400979 40.32857347140642 17.978021767539975 0.5
P 8.76871193542385 40.04798620336822 12.98818797088331 0.5
A 14.033320074651423 1.793184960330551 2.736653671234493 2.5
E 16.44717880560662 1.927044260183188 2.0999687296578955 0.5
E 11.619461343696226 1.6593256604779139 3.3733386128110903 0.5
E 13.738036188917782 4.198612367411279 2.122873241368084 0.5
E 14.328603960385063 -0.6122424467501772 3.350434101100902 0.5
P 13.453584398835732 1.1253521391066215 0.3982982942486344 0.5
P 14.613055750467113 2.4610177815544807 5.075009048220352 0.5
A 32.63584447703778 0.873552718197307 13.047209321876766 2.5
E 33.17797970643637 3.2076415153223143 12.334384743048531 0.5
E 32.09370924763919 -1.4605360789277002 13.760033900705 0.5
E 30.285042027449418 1.5691456247855722 13.536983097526932 0.5
E 34.98664692662614 0.17795981160904173 12.5574355462266 0.5
P 31.980239995619698 0.30947825906908366 10.701574489149195 0.5
P 33.29144895845586 1.4376271773255302 15.392844154604337 0.5
A 37.879859156999366 25.10719267820081 29.98508457783304 2.5
E 38.270288134075095 26.937476636998856 31.642680983484283 0.5
E 37.48943017992364 23.276908719402766 28.327488172181795 0.5
E 39.497699836254526 26.185424162598963 28.41345854006148 0.5
E 36.262018477744206 24.028961193802658 31.556710615604597 0.5
P 39.7453769806635 23.789058581752013 31.00113858888379 0.5
P 36.01434133333523 26.42532677464961 28.969030566782287 0.5
A 7.790448608487479 1.6174053006768854 21.30178113766942 2.5
E 5.880090080161631 0.19774380664924296 22.066693901081923 0.5
E 9.700807136813326 3.037066794704528 20.536868374256915 0.5
E 9.36884258097958 0.21431709887968786 22.639695920300046 0.5
E 6.212054635995377 3.020493502474083 19.963866355038792 0.5
P 8.120907018664544 0.1121130565076145 19.333306474690357 0.5
P 7.459990198310414 3.1226975448461562 23.27025580064848 0.5
70
Properties=species:S:1:pos:R:3:radius:R:1
A 1.6726199398179742 29.84503825445932 34.56075526545987 2.5
E -0.4111093898357683 30.996130494699862 33.79717243746992 0.5
E 3.7563492694717167 28.693946014218774 35.32433809344982 0.5
E 0.7377911462296234 29.68731241124295 36.87402517730807 0.5
E 2.6074487334063248 30.002764097675687 32.247485353611665 0.5
P 0.655679819938112 27.631419223812436 33.998862411137054 0.5
P 2.689560059697836 32.0586572851062 35.12264811978268 0.5
A 14.83867419390541 26.505394925605916 13.295705172472339 2.5
E 15.536649740698236 28.58710869367473 14.491237657983248 0.5
E 14.140698647112584 24.423681157537104 12.100172686961429 0.5
E 15.24548133881464 25.175793154539818 15.373364210242634 0.5
E 14.43186704899618 27.834996696672015 11.218046134702043 0.5
P 12.472804780152837 26.89091654394986 14.005659395545496 0.5
P 17.204543607657985 26.119873307261972 12.58575094939918 0.5
A 30.56538724982109 36.57884175436567 25.12279334266917 2.5
E 30.542172151688902 38.900675319433105 24.19621363463256 0.5
E 30.588602347953277 34.25700818929823 26.04937305070578 0.5
E 32.616650573155546 37.12617866148575 26.44292253651626 0.5
E 28.514123926486636 36.031504847245586 23.80266414882208 0.5
P 29.136478632182488 37.3268465713493 27.03295274863708 0.5
P 31.99429586745969 35.83083693738204 23.21263393670126 0.5
A 2.1609250127811883 7.21605490355016 4.512182819341598 2.5
E 4.312651232532137 7.105270639534175 3.244191840634752 0.5
E 0.009198793030239294 7.326839167566145 5.780173798048445 0.5
E 0.9948265262556957 6.0462035751850545 2.6355735927724195 0.5
E 3.327023499306681 8.385906231915266 6.388792045910777 0.5
P 2.6711098762948606 5.009434248256628 5.570736874963086 0.5
P 1.650740149267516 9.422675558843691 3.4536287637201104 0.5
A 16.88325864482851 4.097475473105895 14.218715546481132 2.5
E 14.873728759733986 5.421206410035813 14.896599052349492 0.5
E 18.89278852992303 2.7737445361759776 13.540832040612772 0.5
E 16.73057989783749 5.0473540478794146 11.911245093061366 0.5
E 17.035937391819527 3.1475968983323757 16.526185999900896 0.5
P 18.36260946229237 5.993647168866226 14.901397067446906 0.5
P 15.40390782736465 2.201303777345564 13.536034025515358 0.5
A 8.117884705337818 40.03646496982318 15.120654485850242 2.5
E 6.133943317675248 39.75293731913339 13.626134950475821 0.5
E 10.101826093000389 40.31999262051297 16.61517402122466 0.5
E 7.468367940466782 42.41538937314524 15.53156403238352 0.5
E 8.767401470208855 37.65754056650112 14.709744939316964 0.5
P 6.7423467951103655 39.322090589980895 17.082175503569395 0.5
P 9.493422615565272 40.75083934966546 13.15913346813109 0.5
A 13.98350941312432 2.3976401807075716 2.234912517567407 2.5
E 15.358877211851615 2.713184241805175 4.298597416898249 0.5
E 12.608141614397026 2.082096119609968 0.17122761823656507 0.5
E 14.172966058578625 4.8398559288076335 1.7352241954892007 0.5
E 13.794052767670015 -0.0445755673924908 2.734600839645614 0.5
P 16.062564390202443 1.9663465623520904 0.9152473262978189 0.5
P 11.904454436046198 2.8289337990630528 3.5545777088369954 0.5
A 32.531699828871275 0.06999489587416188 13.164042814845594 2.5
E 35.002151234777614 -0.15154767450784548 13.476754727897854 0.5
E 30.061248422964937 0.2915374662561693 12.851330901793334 0.5
E 32.812253340508356 2.505158242023007 12.672851197773253 0.5
E 32.251146317234195 -2.3651684502746835 13.655234431917934 0.5
P 32.79277372294032 -0.4504840826471346 10.732799911564655 0.5
P 32.27062593480223 0.5904738743954583 15.595285718126533 0.5
A 38.07705083725412 24.44211819752702 29.549875664983944 2.5
E 37.23916525929453 26.28775213076505 28.08646077414487 0.5
E 38.91493641521371 22.59648426428899 31.013290555823016 0.5
E 39.89690867969893 23.963291966972214 27.904019391117156 0.5
E 36.25719299480931 24.920944428081825 31.19573193885073 0.5
P 39.572398686933695 26.05901671797129 30.732911582885713 0.5
P 36.581702987574545 22.82521967708275 28.366839747082174 0.5
A 7.690921278917635 2.0554773939978834 21.28115084979015 2.5
E 5.642121241839979 1.4347327115123991 22.572310966599854 0.5
E 9.739721315995292 2.6762220764833677 19.98999073298045 0.5
E 6.4631432412294885 1.6552381768765125 19.140503830953982 0.5
E 8.918699316605782 2.4557166111192545 23.42179786862632 0.5
P 6.952694011577355 4.443883684445036 21.258001475905832 0.5
P 8.429148546257915 -0.3329288964492694 21.30430022367447 0.5
70
Properties=species:S:1:pos:R:3:radius:R:1
A 2.2647304208830272 30.191123496102385 34.53690849837556 2.5
E 2.1986283566162066 31.946689196485682 32.75825181741106 0.5
E 2.330832485149848 28.435557795719088 36.31556517934006 0.5
E 4.688799622575884 30.668950791786422 34.91844431701612 0.5
E -0.15933878080982922 29.71329620041835 34.155372679735 0.5
P 1.6568496574876836 31.905670126305036 36.25178774495735 0.5
P 2.872611184278371 28.476576865899734 32.82202925179377 0.5
A 14.08158438179204 26.600424125075637 13.583351377843712 2.5
E 14.177771226827637 26.555075596333804 11.085614081452608 0.5
E 13.985397536756441 26.64577265381747 16.081088674234817 0.5
E 15.867647236776865 24.85403307809745 13.6838391337047 0.5
E 12.295521526807214 28.346815172053823 13.482863621982725 0.5
P 15.828217591394342 28.388736687793763 13.618145186761012 0.5
P 12.334951172189736 24.81211156235751 13.548557568926412 0.5
A 30.380863165927998 36.325147994696934 24.890603658146514 2.5
E 30.619317909129922 37.6598704645446 26.990997731630937 0.5
E 30.142408422726074 34.990425524849265 22.79020958466209 0.5
E 28.760229015284626 34.807172263667425 26.039209173445 0.5
E 32.001497316571374 37.84312372572644 23.74199814284803 0.5
P 28.492296438165067 37.796292314092355 24.170152336891807 0.5
P 32.269429893690926 34.85400367530151 25.61105497940122 0.5
A 1.7053141526510036 7.123235698013702 4.613331194155431 2.5
E 3.072197914741703 8.299119703356096 6.345071817606856 0.5
E 0.3384303905603041 5.947351692671308 2.881590570704006 0.5
E -0.21159050740741225 6.995543965452049 6.213072218721894 0.5
E 3.6222188127094195 7.250927430575356 3.013590169588968 0.5
P 0.8644186150374844 9.325732378468535 3.781524084660484 0.5
P 2.546209690264523 4.920739017558869 5.445138303650378 0.5
A 16.374089008334018 4.3078980794962645 14.083252562395641 2.5
E 17.16835725098096 2.5733914042374804 15.698995287029495 0.5
E 15.579820765687076 6.042404754755049 12.467509837761787 0.5
E 18.14360868523453 5.875604860536981 14.896330394920207 0.5
E 14.604569331433508 2.740191298455548 13.270174729871075 0.5
P 17.951408909871567 3.4225834223468135 12.357483201776471 0.5
P 14.796769106796466 5.193212736645715 15.80902192301481 0.5
A 8.373167782323542 39.5673155086753 15.316154877852103 2.5
E 8.766186351110678 38.081784910288285 13.344167239491668 0.5
E 7.980149213536406 41.052846107062315 17.288142516212538 0.5
E 6.8584011434889565 40.99904901019542 13.93571248119057 0.5
E 9.887934421158127 38.13558200715518 16.696597274513636 0.5
P 6.423547707933606 38.15545927595088 15.991168613753036 0.5
P 10.322787856713477 40.97917174139972 14.64114114195117 0.5
A 14.622228134014607 2.7387379549096798 2.0446274591304148 2.5
E 16.492216374685867 2.5926317698050196 3.697442319428246 0.5
E 12.752239893343345 2.88484414001434 0.39181259883258335 0.5
E 15.756486947138454 4.668870196228991 0.9319520905405696 0.5
E 13.48796932089076 0.8086057135903679 3.15730282772026 0.5
P 15.833261132986172 1.156574084228192 0.5346087302041516 0.5
P 13.411195135043043 4.320901825591168 3.5546461880566778 0.5
A 32.41381411822138 39.78071556028271 13.03980176414181 2.5
E 32.239967859056634 37.390711781671584 13.752303986173363 0.5
E 32.58766037738613 42.17071933889383 12.327299542110257 0.5
E 34.506056299233194 39.25223447142477 11.777569457981253 0.5
E 30.321571937209573 40.309196649140645 14.302034070302367 0.5
P 31.056500545692803 39.272198424932284 11.002865292651933 0.5
P 33.771127690749964 40.28923269563313 15.076738235631687 0.5
A 38.633457112141414 24.083836207107872 29.388550234655042 2.5
E 39.0073447583505 21.94826104855865 28.14375034302525 0.5
E 38.25956946593233 26.219411365657095 30.633350126284835 0.5
E 41.08746317661331 24.253379293709944 29.834766972712295 0.5
E 36.17945104766952 23.9142931205058 28.94233349659779 0.5
P 38.930209978259406 25.372468770709595 27.266908452336956 0.5
P 38.33670424602342 22.79520364350615 31.51019201697313 0.5
A 7.75938453203992 2.244615618775492 21.059211104969368 2.5
E 8.174777577118627 0.6248343376957346 22.917639801359798 0.5
E 7.3439914869612135 3.86439689985525 19.200782408578938 0.5
E 10.188599528068456 2.8346055415636338 21.030464034125597 0.5
E 5.330169536011384 1.6546256959873507 21.08795817581314 0.5
P 8.179340626380618 0.4340299421294971 19.387261229418655 0.5
P 7.3394284376992225 4.0552012954214876 22.73116098052008 0.5
70
Properties=species:S:1:pos:R:3:radius:R:1
A 2.3773495098562485 30.242904032796517 34.89826653467521 2.5
E 2.1745492312949404 27.799555933062663 35.38706312891961 0.5
E 2.5801497884175566 32.68625213253037 34.40946994043081 0.5
E 2.9929674503768346 30.668983337546518 37.283527731562344 0.5
E 1.7617315693356623 29.816824728046516 32.51300533778807 0.5
P 4.791865320184924 29.929046597655617 34.33116256529911 0.5
P -0.037166300472427416 30.556761467937417 35.46537050405131 0.5
A 13.52929265905992 27.152528382689013 13.860151018857314 2.5
E 11.280772361843013 26.84937446273813 12.810268085468 0.5
E 15.777812956276826 27.455682302639897 14.910033952246629 0.5
E 13.130847213732636 25.14344642736141 15.293619164256821 0.5
E 13.927738104387203 29.161610338016615 12.426682873457807 0.5
P 14.546837596692496 25.695927065376836 12.101482516181813 0.5
P 12.511747721427342 28.60912970000119 15.618819521532815 0.5
A 30.136954991356298 36.21337996376079 24.85423824243358 2.5
E 29.029697076345496 34.15640121600004 25.744641713286537 0.5
E 31.2442129063671 38.27035871152153 23.963834771580625 0.5
E 28.161372241186328 36.63987572028341 23.382785162345915 0.5
E 32.11253774152627 35.78688420723816 26.325691322521248 0.5
P 29.078157226494085 37.5687174866418 26.66862725590174 0.5
P 31.19575275621851 34.85804244087977 23.039849228965423 0.5
A 1.400400319767401 7.422818427140901 4.0610425433090445 2.5
E 0.14020073467111294 5.271009400279194 4.238848385841181 0.5
E 2.6605999048636892 9.574627454002608 3.8832367007769077 0.5
E -0.7359457636657416 8.63563985341528 3.5972650106831137 0.5
E 3.536746403200544 6.209997000866522 4.524820075934976 0.5
P 1.087474741519221 7.808541254939829 6.511204881316831 0.5
P 1.7133258980155812 7.037095599341972 1.6108802053012576 0.5
A 16.18720987922109 4.435876970732498 14.055928615927847 2.5
E 13.719114382619804 4.826944695526659 13.98129180006175 0.5
E 18.655305375822376 4.044809245938338 14.130565431793944 0.5
E 16.08062031687723 3.3352480322842184 11.813774605818054 0.5
E 16.29379944156495 5.536505909180779 16.29808262603764 0.5
P 16.570802481936074 6.646234854532404 12.952672190309663 0.5
P 15.803617276506106 2.2255190869325925 15.159185041546031 0.5
A 8.821900114022617 38.968255932479984 16.11502829610791 2.5
E 9.804288562221629 37.95259827362977 14.052662553358637 0.5
E 7.839511665823604 39.9839135913302 18.17739403885718 0.5
E 7.020634541558146 40.021728444463996 14.738206592345918 0.5
E 10.623165686487088 37.91478342049597 17.4918499998699 0.5
P 7.393490062846447 36.941279073580326 16.432848275319255 0.5
P 10.250310165198787 40.99523279137964 15.797208316896562 0.5
A 15.398525993633429 2.8620881615747527 2.19734002829211 2.5
E 16.85285401247901 4.3452030631100085 0.8061893526136896 0.5
E 13.944197974787848 1.3789732600394966 3.5884907039705305 0.5
E 13.406610510214426 4.245074577362761 1.5893751603455728 0.5
E 17.39044147705243 1.479101745786744 2.8053048962386473 0.5
P 14.989621701026834 1.3999941965418357 0.21111785620309753 0.5
P 15.807430286240024 4.32418212660767 4.183562200381123 0.5
A 32.61314329400249 39.76022998034214 12.805660590798292 2.5
E 31.546999217032777 39.15995764838696 14.985800479574335 0.5
E 33.679287370972204 40.36050231229732 10.625520702022248 0.5
E 30.428369131478085 39.412056349709644 11.64138528757362 0.5
E 34.797917456526896 40.108403610974634 13.969935894022964 0.5
P 32.029963505335985 42.161989387614696 13.181763081709494 0.5
P 33.196323082669 37.35847057306958 12.429558099887089 0.5
A 39.096741960842785 23.919446887846203 29.716211959695062 2.5
E 40.932563470067166 25.490515736368245 30.357696222537424 0.5
E 37.260920451618404 22.34837803932416 29.0747276968527 0.5
E 40.789653327045166 22.28936855812559 28.863630148277704 0.5
E 37.403830594640404 25.549525217566813 30.56879377111242 0.5
P 39.21426001245004 22.85898127681464 31.977097227763203 0.5
P 38.97922390923553 24.979912498877766 27.455326691626922 0.5
A 7.733616099922353 2.0397566093974655 20.344949352774513 2.5
E 9.600717202836613 0.38905895272976276 20.542764210082346 0.5
E 5.866514997008092 3.690454266065168 20.14713449546668 0.5
E 6.224458611362303 0.4817021776452739 21.587893463514852 0.5
E 9.242773588482402 3.597811041149657 19.102005242034174 0.5
P 8.43102354627139 3.0874510467086145 22.505032503907312 0.5
P 7.036208653573314 0.9920621720863168 18.184866201641714 0.5
70
Properties=species:S:1:pos:R:3:radius:R:1
A 2.5517199162224093 29.49240394208445 35.23251046997259 2.5
E 1.556939513872682 31.638678984660988 36.041160822545635 0.5
E 3.5465003185721367 27.346128899507914 34.42386011739954 0.5
E 4.199120879555206 29.54777417507353 37.11213921079121 0.5
E 0.9043189528896121 29.43703370909537 33.352881729153964 0.5
P 0.9559498773027677 28.211608260129545 36.66885318811982 0.5
P 4.147489955142051 30.773199624039357 33.79616775182536 0.5
A 12.96234858379293 28.137908176523176 14.242618922322512 2.5
E 12.16219105999803 29.877638971421813 12.635421144077442 0.5
E 13.762506107587832 26.39817738162454 15.849816700567581 0.5
E 11.801471562131814 29.328531031526552 16.109375938573677 0.5
E 14.123225605454047 26.9472853215198 12.375861906071348 0.5
P 10.897860153771163 26.794124719851272 13.81584785502614 0.5
P 15.0268370138147 29.48169163319508 14.669389989618884 0.5
A 29.49739495715909 36.311737071686814 24.590152021121284 2.5
E 27.21533118880346 35.59567035251903 23.862530271268287 0.5
E 31.779458725514722 37.0278037908546 25.31777377097428 0.5
E 28.483601299967187 38.11083491095426 25.999218870273946 0.5
E 30.511188614350996 34.51263923241937 23.181085171968622 0.5
P 29.377364220277617 34.7304415842956 26.522791978216294 0.5
P 29.617425694040566 37.89303255907803 22.657512064026275 0.5
A 1.2331615455772404 7.861747676105625 3.778149049853888 2.5
E -0.9231081475775531 6.616326300136757 3.555828095689227 0.5
E 3.3894312387320342 9.107169052074493 4.000470004018549 0.5
E 0.8240760261301494 8.963877074692569 1.5718036946232465 0.5
E 1.6422470650243315 6.7596182775186815 5.984494405084529 0.5
P 0.03601909450486418 9.728358611745115 4.932537878104677 0.5
P 2.4303039966496165 5.995136740466134 2.6237602216030993 0.5
A 16.10521739358894 4.435870327344179 14.28395173691884 2.5
E 15.156091110421432 3.175850439832335 16.22341279135565 0.5
E 17.05434367675645 5.695890214856023 12.344490682482032 0.5
E 17.319497838219178 5.9486334928158495 15.860996633864577 0.5
E 14.890936948958704 2.923107161872508 12.706906839973104 0.5
P 18.073638664656464 2.895124570164028 14.246266045441255 0.5
P 14.136796122521417 5.97661608452433 14.321637428396427 0.5
A 9.195816566130068 38.27315035693523 16.372031259800625 2.5
E 10.17001379550358 37.003747785217264 14.451209334374287 0.5
E 8.221619336756556 39.5425529286532 18.292853185226964 0.5
E 6.8936768094291825 37.70614801563309 15.579149878018434 0.5
E 11.497956322830953 38.840152698237375 17.164912641582816 0.5
P 9.228866511665911 36.195381010767214 17.76191695482248 0.5
P 9.162766620594224 40.35091970310325 14.98214556477877 0.5
A 16.358605266668594 2.7887820715313842 2.0233718265355805 2.5
E 16.79611500031503 4.900988603061878 0.7595803876027027 0.5
E 15.921095533022156 0.6765755400008913 3.2871632654684584 0.5
E 14.953901445616308 4.057090054728417 3.656835029327511 0.5
E 17.763309087720877 1.5204740883343513 0.38990862374364954 0.5
P 14.337369899849277 2.364543426528262 0.6146031570940074 0.5
P 18.379840633487913 3.2130207165345066 3.4321404959771535 0.5
A 32.65545364674264 39.84981036462114 12.646457156796332 2.5
E 30.163980390882994 39.64843989889705 12.601613529925032 0.5
E 35.14692690260229 40.05118083034523 12.691300783667632 0.5
E 32.78626989004575 38.727949446847944 10.416139871820508 0.5
E 32.524637403439534 40.97167128239434 14.876774441772156 0.5
P 32.49592895954667 42.07486722158186 11.51788555629068 0.5
P 32.81497833393862 37.62475350766042 13.775028757301984 0.5
A 39.38887698379504 24.198281838205585 30.321852205356883 2.5
E 37.82902328909957 22.307324352002308 30.812908451135378 0.5
E 40.94873067849052 26.08923932440886 29.83079595957839 0.5
E 41.33090301197931 22.76603484971751 30.975460245257807 0.5
E 37.44685095561078 25.63052882669366 29.66824416545596 0.5
P 39.60192945855454 23.40901106759511 27.959298440114654 0.5
P 39.17582450903555 24.98755260881606 32.684405970599116 0.5
A 7.807714215598539 1.8433642715952998 19.454296145666206 2.5
E 7.695815986525619 -0.5440585529619852 20.187570339346063 0.5
E 7.919612444671459 4.230787096152585 18.721021951986348 0.5
E 10.303283273674143 1.7076633458080817 19.39330159574802 0.5
E 5.312145157522934 1.979065197382518 19.51529069558439 0.5
P 7.709663908563964 1.1141197889099714 17.065030856551786 0.5
P 7.905764522633113 2.572608754280628 21.843561434780625 0.5
70
Properties=species:S:1:pos:R:3:radius:R:1
A 2.8104892518324918 28.765481422513883 35.722203067710105 2.5
E 4.087493628794929 29.57847242722859 37.71175212402276 0.5
E 1.533484874870054 27.952490417799176 33.73265401139745 0.5
E 0.661253350184754 29.241316943807295 36.90726238932513 0.5
E 4.95972515348023 28.28964590122047 34.537143746095076 0.5
P 2.803791469361699 31.081215902744987 34.78022166832816 0.5
P 2.8171870343032843 26.44974694228278 36.66418446709205 0.5
A 12.236826336570688 28.713427872464926 14.265131567280587 2.5
E 11.86848697356695 26.648338072525124 12.90508368876796 0.5
E 12.605165699574426 30.77851767240473 15.625179445793215 0.5
E 14.524420864099719 28.950865173510877 13.285062791279968 0.5
E 9.949231809041658 28.475990571418976 15.245200343281207 0.5
P 11.298083884520425 30.102322269550864 12.410479318889516 0.5
P 13.175568788620952 27.32453347537899 16.11978381567166 0.5
A 29.00068888713054 36.486542239637245 24.769322414917337 2.5
E 26.713147095949026 37.34581621113785 25.297338319507066 0.5
E 31.288230678312054 35.62726826813664 24.241306510327608 0.5
E 29.39410253616954 36.04163135656945 27.197754008946227 0.5
E 28.60727523809154 36.931453122705044 22.340890820888447 0.5
P 28.0720456540491 34.18139527078049 24.497441563030627 0.5
P 29.92933212021198 38.791689208494 25.041203266804047 0.5
A 1.2116419911336425 8.163660180566094 4.019761160735807 2.5
E 0.16399425993823868 6.059327821652652 4.8707720622815245 0.5
E 2.2592897223290462 10.267992539479536 3.168750259190089 0.5
E -0.9313954504071371 8.771662461631799 2.8849819970339037 0.5
E 3.354679432674422 7.555657899500389 5.1545403244377095 0.5
P 0.46342761311473935 9.368698997139001 6.078415258702995 0.5
P 1.9598563691525457 6.958621363993187 1.961107062768619 0.5
A 16.12391202635395 4.357506775120813 14.709425794186485 2.5
E 14.320669046058335 2.9826673691662307 13.656747608865345 0.5
E 17.927155006649564 5.732346181075394 15.762103979507625 0.5
E 15.593094180036342 3.3497539337496796 16.93488453897173 0.5
E 16.654729872671556 5.3652596164919455 12.483967049401242 0.5
P 17.772107150739195 2.528777484453431 14.274452216356927 0.5
P 14.475716901968704 6.1862360657881945 15.144399372016043 0.5
A 9.710223260649094 38.246456994142704 16.68241270922419 2.5
E 11.277201854090578 38.19912810115905 14.735020077116681 0.5
E 8.143244667207611 38.29378588712636 18.629805341331704 0.5
E 8.649604505060212 36.12940322765918 15.88043315517525 0.5
E 10.770842016237976 40.36351076062623 17.484392263273133 0.5
P 11.344134501503618 36.91760661667036 18.029443047153656 0.5
P 8.076312019794571 39.57530737161505 15.335382371294727 0.5
A 17.166879286226436 2.5363279285389466 2.1574168292940645 2.5
E 17.344304036397332 4.771086769338904 1.0509027618333644 0.5
E 16.98945453605554 0.30156908773898916 3.263930896754765 0.5
E 19.55386895701842 2.7051601934829743 2.881140518170863 0.5
E 14.779889615434453 2.367495663594919 1.4336931404172661 0.5
P 16.445214010939917 3.6441855862619494 4.279173328203715 0.5
P 17.888544561512955 1.428470270815944 0.03566033038441452 0.5
A 32.30338301814767 40.16241305115715 12.41828574723636 2.5
E 33.25364137272518 39.00770798346261 10.41487234351842 0.5
E 31.353124663570167 41.317118118851695 14.421699150954302 0.5
E 34.385546430656724 39.647579607621736 13.70263073555789 0.5
E 30.221219605638616 40.67724649469257 11.133940758914832 0.5
P 33.30916857340526 42.31917050902267 11.652261801933621 0.5
P 31.29759746289008 38.005655593291635 13.1843096925391 0.5
A 39.51912155642187 24.01472768450661 31.19042704936031 2.5
E 41.732459731756364 24.41510851960351 30.099175791172954 0.5
E 37.30578338108738 23.61434684940971 32.281678307547665 0.5
E 38.40206065118838 24.09839630780534 28.955438347940184 0.5
E 40.636182461655366 23.93105906120788 33.42541575078044 0.5
P 39.84053881732631 21.548415711465932 30.937452354913837 0.5
P 39.19770429551743 26.48103965754729 31.44340174380678 0.5
A 7.703690345016125 1.187926907972599 18.807403777698163 2.5
E 9.913717532257879 0.019375038145534873 18.791083263624472 0.5
E 5.493663157774371 2.356478777799663 18.823724291771853 0.5
E 6.6548742929733695 -0.7798619670335558 17.67700923047887 0.5
E 8.75250639705888 3.1557157829787537 19.937798324917456 0.5
P 7.188166610709541 0.18179894845187317 21.037188926191376 0.5
P 8.219214079322708 2.1940548674933247 16.57761862920495 0.5
70
Properties=species:S:1:pos:R:3:radius:R:1
A 2.9255656421140257 28.718957964199966 36.42472732003998 2.5
E 3.1295915218235173 26.569130378441695 37.68433630378226 0.5
E 2.721539762404534 30.868785549958236 35.165118336297695 0.5
E 1.3061071025948927 29.565019616805802 38.1310490126792 0.5
E 4.545024181633159 27.87289631159413 34.718405627400756 0.5
P 4.819167363487891 29.67416528803358 37.74830258775515 0.5
P 1.0319639207401605 27.76375064036635 35.10115205232481 0.5
A 11.634037907855872 28.754589069830995 14.314518422927817 2.5
E 9.147098823609118 28.49937747627692 14.313501682104928 0.5
E 14.120976992102625 29.00980066338507 14.315535163750706 0.5
E 11.714534233353746 27.960744380970734 16.68376533947115 0.5
E 11.553541582357997 29.548433758691257 11.945271506384485 0.5
P 11.876224474014386 26.397752704598073 13.516603631306305 0.5
P 11.391851341697357 31.111425435063918 15.112433214549329 0.5
A 28.827779490358594 36.50239899064301 25.104459584910614 2.5
E 26.75652122487697 35.10510077126072 25.190754913783685 0.5
E 30.89903775584022 37.899697210025295 25.018164256037544 0.5
E 30.117203669284986 34.658325251371 26.19385268702183 0.5
E 27.538355311432202 38.34647272991502 24.015066482799398 0.5
P 29.373008327154857 35.555324690369474 22.855954351363817 0.5
P 28.282550653562332 37.44947329091654 27.352964818457412 0.5
A 0.8205721205762782 8.199472938827267 4.095814403161961 2.5
E 1.2282178617443615 6.1096341239027785 2.785700409136585 0.5
E 0.4129263794081947 10.289311753751754 5.405928397187338 0.5
E -0.9212779797796058 7.015391812993538 5.442629206812827 0.5
E 2.562422220932162 9.383554064660995 2.7489995995110963 0.5
P 2.5669349630567035 7.50627338957905 5.7449630342211355 0.5
P -0.9257907219041475 8.892672488075483 2.4466657721027874 0.5
A 16.1103756343945 3.9619534765969453 14.509879652351955 2.5
E 15.673730615125193 5.205077147668401 12.385265648451197 0.5
E 16.54702065366381 2.718829805525489 16.634493656252715 0.5
E 13.828872828427658 2.947460703436329 14.385182581125793 0.5
E 18.391878440361342 4.9764462497575614 14.634576723578117 0.5
P 17.03454340786142 2.0448076940262014 13.198214308272725 0.5
P 15.18620786092758 5.879099259167689 15.821544996431186 0.5
A 10.006834139803274 38.743194750285014 16.838324245485158 2.5
E 11.474496837830186 37.280908824173416 15.439150891279843 0.5
E 8.539171441776363 40.20548067639661 18.237497599690474 0.5
E 8.049607638368037 37.27786483927136 16.316718384733825 0.5
E 11.964060641238511 40.20852466129867 17.35993010623649 0.5
P 10.52183960278574 37.34157849674537 18.843378172668547 0.5
P 9.491828676820809 40.14481100382466 14.833270318301768 0.5
A 17.975120403576813 2.2477720841665247 2.3777302548347676 2.5
E 18.833942972189767 4.3360923365646125 3.45073646127536 0.5
E 17.11629783496386 0.15945183176843702 1.3047240483941753 0.5
E 18.135998715963105 3.335282858359682 0.13241546964037676 0.5
E 17.814242091190522 1.1602613099733676 4.623045040029158 0.5
P 20.317457263261982 1.4073919086311997 2.1385249114111087 0.5
P 15.632783543891644 3.08815225970185 2.6169355982584266 0.5
A 32.16839431882632 0.1006261456023217 12.258270166125408 2.5
E 31.74361895140371 2.163492607796595 13.60517322365606 0.5
E 32.593169686248935 -1.9622403165919515 10.911367108594757 0.5
E 30.774018468074825 -1.2274745831496983 13.852592731081993 0.5
E 33.56277016957782 1.4287268743543415 10.663947601168823 0.5
P 30.13731532625307 0.5809702029641085 10.882047904829948 0.5
P 34.19947331139957 -0.3797179117594651 13.634492427420868 0.5
A 39.954946553942385 23.57761659523247 32.123627642543426 2.5
E 38.793085119509115 25.153093857304885 33.67860333491642 0.5
E 41.116807988375655 22.002139333160056 30.568651950170437 0.5
E 41.70211547008354 23.151967020948124 33.86035537548923 0.5
E 38.20777763780123 24.003266169516817 30.38689990959762 0.5
P 38.59572663588343 21.683759727196836 33.02685927271779 0.5
P 41.31416647200134 25.471473463268104 31.220396012369054 0.5
A 7.296364723848997 0.5742523990028748 17.871729421170247 2.5
E 9.780739833256376 0.48042494731227814 17.60890490734046 0.5
E 4.811989614441617 0.6680798506934715 18.134553935000035 0.5
E 7.372036669011128 -1.4655089410076245 19.315213897192592 0.5
E 7.220692778686867 2.614013739013374 16.428244945147902 0.5
P 7.56497982483179 2.0166705370999276 19.89590229975947 0.5
P 7.027749622866205 -0.8681657390941778 15.847556542581025 0.5
70
Properties=species:S:1:pos:R:3:radius:R:1
A 3.227576117565248 28.514033663574743 36.593836167447904 2.5
E 4.9683099637283865 26.822043684328733 35.99632835414698 0.5
E 1.48684227140211 30.206023642820753 37.191343980748826 0.5
E 4.390167708091038 28.94338830858705 38.76501911285982 0.5
E 2.0649845270394582 28.084679018562436 34.42265322203599 0.5
P 4.594406930234936 30.303677342897508 35.50804197396588 0.5
P 1.8607453048955598 26.724389984251978 37.67963036092993 0.5
A 11.465259982635478 28.65314701471847 14.312910117817461 2.5
E 9.426255568835046 29.905106867163713 13.58830158324994 0.5
E 13.50426439643591 27.401187162273228 15.037518652384982 0.5
E 11.896505969825105 30.37462873831226 16.073741618519858 0.5
E 11.034013995445852 26.93166529112468 12.552078617115065 0.5
P 10.08450370470818 27.34200354308835 15.93291471588702 0.5
P 12.846016260562777 29.96429048634859 12.692905519747903 0.5
A 28.728040585391152 36.74113885065289 25.35621770080381 2.5
E 26.456554511802874 35.97975344222256 24.641624615667865 0.5
E 30.99952665897943 37.502524259083216 26.070810785939756 0.5
E 29.725135719892787 34.65152480196137 24.413183014132937 0.5
E 27.730945450889518 38.830752899344404 26.299252387474684 0.5
P 29.03812494528035 37.88298182906132 23.153936542002402 0.5
P 28.417956225501953 35.599295872244454 27.55849885960522 0.5
A 0.07599821869183276 8.100015038415233 4.021467844263712 2.5
E -0.0597848068553887 5.6363380238815095 4.423784309288626 0.5
E 0.21178124423905423 10.563692052948955 3.619151379238797 0.5
E -2.1528491022968224 8.401112279916486 5.113063039782972 0.5
E 2.304845539680488 7.798917796913979 2.9298726487444515 0.5
P 1.2001879667742634 8.39940778919126 6.234285367487853 0.5
P -1.0481915293905981 7.8006222876392055 1.8086503210395701 0.5
A 15.949468136313287 3.5056432728739786 14.231891019287632 2.5
E 15.787315469112475 4.48641943670918 11.938032996441741 0.5
E 16.1116208035141 2.5248671090387775 16.525749042133523 0.5
E 13.583071940086505 2.717383765891455 14.062138281055901 0.5
E 18.31586433254007 4.293902779856502 14.401643757519363 0.5
P 16.739326069745093 1.3453828566031856 13.252401673306544 0.5
P 15.159610202881481 5.665903689144772 15.21138036526872 0.5
A 10.123706371382315 39.09857437740747 17.26450706391887 2.5
E 12.580001862929006 39.06132448812202 16.800583682359683 0.5
E 7.667410879835625 39.13582426669293 17.728430445478057 0.5
E 9.676909137469883 38.21204688105636 14.970070045828525 0.5
E 10.570503605294748 39.98510187375859 19.558944082009216 0.5
P 10.254031695004736 36.761336382687354 18.14219371988503 0.5
P 9.993381047759895 41.43581237212759 16.38682040795271 0.5
A 17.892283801227663 1.815331414765462 2.355363855955606 2.5
E 20.05173002261081 0.5695013217848346 2.169086116080936 0.5
E 15.732837579844517 3.0611615077460894 2.541641595830276 0.5
E 18.09970000620101 2.5316388959596132 -0.030821826319481715 0.5
E 17.684867596254314 1.0990239335713106 4.741549538230694 0.5
P 16.649798173599162 -0.23034963852805035 1.6332707225389806 0.5
P 19.134769428856163 3.8610124680589744 3.0774569893722314 0.5
A 32.13535867229041 0.08132420376446874 12.188196399899482 2.5
E 29.84998101890747 0.3540708888049861 11.212154276209382 0.5
E 34.420736325673346 -0.1914224812760486 13.164238523589582 0.5
E 31.947130668124036 -2.398778334150052 11.935883855863977 0.5
E 32.32358667645678 2.5614267416789898 12.440508943934987 0.5
P 33.13115945551244 0.23848859931744443 9.900472606932983 0.5
P 31.139557889068374 -0.07584019178850694 14.475920192865981 0.5
A 40.09922250561564 23.412743971745755 32.83641779580152 2.5
E 42.20138716275688 23.561219258628935 34.181356026149864 0.5
E 37.997057848474405 23.264268684862575 31.49147956545318 0.5
E 41.42735206815107 22.711069544065012 30.83798719589077 0.5
E 38.77109294308021 24.114418399426498 34.83484839571228 0.5
P 39.84042602305257 21.01783101158934 33.50530963600375 0.5
P 40.35801898817871 25.80765693190217 32.167525955599295 0.5
A 6.852920848587512 0.4197619449679891 16.92210669755753 2.5
E 7.774829503556799 1.6235796090112207 14.934417721979658 0.5
E 5.931012193618225 -0.7840557190752426 18.909795673135406 0.5
E 8.853785763121166 -1.0789460294315094 16.942453718547892 0.5
E 4.852055934053858 1.9184699193674875 16.90175967656717 0.5
P 8.034709334605441 2.0181040357647135 18.438246049697234 0.5
P 5.671132362569582 -1.1785801458287355 15.405967345417828 0.5
70
Properties=species:S:1:pos:R:3:radius:R:1
A 3.7151544998039183 28.376862174457585 36.86502349901811 2.5
E 5.828929291259955 28.724389356352383 35.576155395272885 0.5
E 1.6013797083478813 28.029334992562788 38.15389160276333 0.5
E 5.014025259032251 27.28440432375136 38.70063527585288 0.5
E 2.4162837405755857 29.46932002516381 35.02941172218333 0.5
P 4.023198136045866 30.59851937174909 37.96926460307838 0.5
P 3.4071108635619707 26.15520497716608 35.760782394957836 0.5
A 11.532177114719396 29.0478909935455 14.35270878750759 2.5
E 9.082136406349932 28.566749983947492 14.2269953983402 0.5
E 13.98221782308886 29.52903200314351 14.478422176674979 0.5
E 11.877631004511771 27.855813447731904 12.182544569114237 0.5
E 11.18672322492702 30.239968539359097 16.522873005900944 0.5
P 11.174459156880737 31.192058536824366 13.11796856827534 0.5
P 11.889895072558055 26.903723450266636 15.587449006739838 0.5
A 28.518115399345078 36.472898133232555 25.292898072340474 2.5
E 27.43358222000507 38.639941250873534 24.67831536090451 0.5
E 29.602648578685084 34.305855015591575 25.90748078377644 0.5
E 26.988745676283205 36.265264423508924 27.259600005214015 0.5
E 30.04748512240695 36.680531842956185 23.326196139466933 0.5
P 26.864387479434196 35.24374705672823 23.877139760326745 0.5
P 30.17184331925596 37.70204920973688 26.708656384354203 0.5
A 39.79121051736613 8.250696945106847 3.460273604585573 2.5
E 39.456204844892355 5.885453436669502 2.7231207403816513 0.5
E 40.12621618983991 10.615940453544193 4.197426468789494 0.5
E 39.824757402953445 7.502572595170433 5.845474762454289 0.5
E 39.75766363177882 8.998821295043262 1.0750724467168573 0.5
P 42.26843594228742 7.940966251074322 3.328284622862303 0.5
P 37.313985092444845 8.560427639139373 3.592262586308843 0.5
A 15.75586514116255 3.2295146562031145 13.949261965055467 2.5
E 13.885695197210628 4.8883982163463475 13.925393269506065 0.5
E 17.62603508511447 1.570631096059882 13.973130660604868 0.5
E 14.762221267109831 2.1383484807568873 15.96718868055368 0.5
E 16.749509015215267 4.320680831649342 11.931335249557254 0.5
P 14.427280844891433 1.7104815059886709 12.473659696063848 0.5
P 17.08444943743367 4.748547806417558 15.424864234047085 0.5
A 9.842558954595452 38.83126277764728 18.189656140374765 2.5
E 12.277248342927399 38.26360486387215 18.182439820423436 0.5
E 7.407869566263505 39.39892069142241 18.196872460326095 0.5
E 10.396797425768991 41.21489224290068 17.678647050975773 0.5
E 9.288320483421913 36.44763331239388 18.700665229773758 0.5
P 9.719647200005449 38.33520323958191 15.742450052755798 0.5
P 9.965470709185455 39.32732231571266 20.636862227993735 0.5
A 17.42392226655533 1.2070645371736786 2.5441756931408124 2.5
E 15.770571086977316 -0.5265823275365011 1.8294041034259938 0.5
E 19.077273446133344 2.940711401883858 3.258947282855631 0.5
E 16.917289205963687 2.537515640937956 0.4891275665990391 0.5
E 17.930555327146973 -0.12338656659059866 4.599223819682585 0.5
P 15.618443709801351 2.4213002675686766 3.775385980674421 0.5
P 19.22940082330931 -0.007171193221319427 1.3129654056072035 0.5
A 32.18905612095953 39.867395903395455 12.169641417172905 2.5
E 34.112416662968805 40.291314200725715 10.629843539972637 0.5
E 30.26569557895025 39.443477606065194 13.709439294373173 0.5
E 33.278683662509444 37.75687571681128 12.949651906023304 0.5
E 31.099428579409608 41.97791608997963 11.389630928322505 0.5
P 33.35670163486249 41.13861493220574 13.978123138024118 0.5
P 31.021410607056563 38.59617687458517 10.36115969632169 0.5
A 0.0654210340223979 23.907532361085625 33.724789960233814 2.5
E 0.703658342744659 21.631986015178835 32.90959552613437 0.5
E -0.5728162746998633 26.183078706992415 34.53998439433326 0.5
E 1.009920171148293 24.918413601563735 31.64247382246333 0.5
E -0.8790781031034971 22.896651120607515 35.8071060980043 0.5
P -2.159567621617199 23.68390779785253 32.60701648721014 0.5
P 2.290409689661995 24.13115692431872 34.84256343325749 0.5
A 6.677296008235719 0.1879846800315841 16.40161422230332 2.5
E 5.682143386530454 -2.012060497258133 15.753947272860213 0.5
E 7.672448629940984 2.388029857321301 17.049281171746426 0.5
E 6.185169886981352 -0.2967302594769897 18.804292583674204 0.5
E 7.169422129490086 0.672699619540158 13.998935860932436 0.5
P 8.91726992332844 -0.89592151761884 16.64174796504417 0.5
P 4.437322093142997 1.2718908776820081 16.161480479562467 0.5
70
Properties=species:S:1:pos:R:3:radius:R:1
A 3.872618567953122 28.409639950887954 37.10973240664566 2.5
E 6.233417662904177 28.155998682051152 36.32724040028149 0.5
E 1.5118194730020664 28.663281219724755 37.892224413009835 0.5
E 3.8158958782300343 25.986921223147963 37.72391194288176 0.5
E 3.9293412576762097 30.832358678627944 36.49555287040956 0.5
P 4.693234293948883 28.97186772768617 39.40330816455027 0.5
P 3.0520028419573606 27.847412174089737 34.81615664874106 0.5
A 11.016207214568345 29.486591405282226 14.374808283113587 2.5
E 11.281691750124986 31.38610762493309 12.771263431023696 0.5
E 10.750722679011703 27.587075185631363 15.978353135203479 0.5
E 9.500664524369455 30.888563768121074 15.784632331717242 0.5
E 12.531749904767235 28.08461904244338 12.964984234509933 0.5
P 9.045763529616803 28.664209726789945 13.074408321826587 0.5
P 12.986650899519887 30.308973083774507 15.675208244400588 0.5
A 28.0441473981182 36.41071194601889 25.21067712697673 2.5
E 28.521256599741903 35.13852669639768 23.112127270439448 0.5
E 27.567038196494494 37.6828971956401 27.309226983514012 0.5
E 26.83672354847281 38.15020058214823 23.881652322059665 0.5
E 29.251571247763586 34.671223309889555 26.539701931893795 0.5
P 25.907679645720812 35.1435403019929 25.493133437833738 0.5
P 30.180615150515585 37.677883590044885 24.928220816119723 0.5
A 39.40159265455916 9.045351753382855 3.3075510363453486 2.5
E 39.38362558754759 7.072832352454652 1.7716980494147947 0.5
E 39.41955972157073 11.017871154311058 4.843404023275903 0.5
E 40.968077877250465 10.233440075592835 1.7633456789797257 0.5
E 37.835107431867854 7.857263431172874 4.851756393710971 0.5
P 37.45331104462916 10.018806093138334 2.080120624135165 0.5
P 41.34987426448916 8.071897413627376 4.534981448555532 0.5
A 16.059024937172346 2.878979498398186 13.902937820987493 2.5
E 14.282803070382759 4.524845748159283 13.281519952047583 0.5
E 17.835246803961933 1.2331132486370895 14.524355689927402 0.5
E 14.662180207131478 2.0964261301156677 15.822946942306633 0.5
E 17.455869667213214 3.6615328666807043 11.982928699668353 0.5
P 14.989510710947409 1.1676249139566715 12.427334620186056 0.5
P 17.12853916339728 4.590334082839701 15.37854102178893 0.5
A 9.725421852931166 38.399061456140366 18.98300087567126 2.5
E 12.20021635451167 38.63166175055724 19.250001396242215 0.5
E 7.250627351350662 38.16646116172349 18.716000355100302 0.5
E 9.88364032084358 35.98632998714619 19.618369882578055 0.5
E 9.567203385018752 40.81179292513454 18.347631868764463 0.5
P 9.408626822415492 39.01112678072873 21.386127369861313 0.5
P 10.04221688344684 37.786996131552 16.579874381481204 0.5
A 17.06440765429393 0.6888565611762086 2.885327007634448 2.5
E 16.729252373689917 0.20758535047435295 5.315563407581527 0.5
E 17.399562934897943 1.1701277718780643 0.4550906076873691 0.5
E 18.76203715619663 2.4303545477150656 3.464325139881537 0.5
E 15.36677815239123 -1.0526414253626482 2.3063288753873588 0.5
P 18.868770426063442 -1.0390215550766708 2.791987823892751 0.5
P 15.260044882524419 2.416734677429088 2.9786661913761447 0.5
A 32.54165332272059 39.36866337185825 11.749527355310088 2.5
E 34.366089353551914 41.06750439085231 11.561451940681067 0.5
E 30.717217291889266 37.66982235286419 11.937602769939108 0.5
E 34.23259542744856 37.53457491880269 11.585715436248504 0.5
E 30.850711217992625 41.202751824913804 11.91333927437167 0.5
P 32.79094826423126 39.37632747987617 14.237054901606951 0.5
P 32.29235838120992 39.36099926384033 9.261999809013224 0.5
A 0.2572030960881483 24.6179286434626 34.62615248192817 2.5
E 1.4278364034884135 22.44783556809374 35.038843290939795 0.5
E -0.9134302113121168 26.788021718831462 34.21346167291655 0.5
E 2.402363728323864 25.623261335362287 33.82765887487473 0.5
E -1.8879575361475678 23.612595951562916 35.42464608898162 0.5
P -0.2699624580906237 23.889916127886615 32.29332281483854 0.5
P 0.7843686502669203 25.34594115903859 36.95898214901781 0.5
A 6.686406037552573 39.974522153324116 16.036504420142567 2.5
E 5.016456618945801 40.44657160400009 17.8360705499124 0.5
E 8.356355456159346 39.50247270264814 14.236938290372734 0.5
E 7.2565787376223465 42.406203697728266 15.927748001008949 0.5
E 6.1162333374828 37.54284060891997 16.145260839276183 0.5
P 8.457330098994342 39.636743849218995 17.76847837661126 0.5
P 4.915481976110804 40.31230045742924 14.304530463673874 0.5
70
Properties=species:S:1:pos:R:3:radius:R:1
A 4.687203576988541 28.483427961135842 37.68706213959922 2.5
E 5.289444917137157 30.86337453655711 37.214664355566406 0.5
E 4.0849622368399245 26.103481385714574 38.159459923632035 0.5
E 5.95814724844819 27.75939139112585 35.659631936295696 0.5
E 3.416259905528891 29.207464531145835 39.714492342902744 0.5
P 6.754087113183843 28.235183437669 39.0713912566722 0.5
P 2.620320040793238 28.731672484602683 36.30273302252624 0.5
A 10.018898639315687 29.74545346196753 14.7166814167686 2.5
E 7.613885569669703 30.017386405418563 14.090610646728411 0.5
E 12.42391170896167 29.473520518516494 15.342752186808788 0.5
E 10.653439230355755 31.481165672341 13.033036156898332 0.5
E 9.384358048275619 28.009741251594058 16.400326676638866 0.5
P 9.76736261176659 31.524035930403322 16.455466633469708 0.5
P 10.270434666864784 27.966870993531735 12.977896200067493 0.5
A 28.29075474522105 35.891019380439836 25.329324157458757 2.5
E 28.36819213474199 36.224537332570605 27.8057670149281 0.5
E 28.213317355700113 35.55750142830907 22.852881299989413 0.5
E 30.77883490610711 35.651471403212895 25.28378428908025 0.5
E 25.80267458433499 36.13056735766678 25.374864025837265 0.5
P 28.05953933978786 33.42497344773436 25.668671905465704 0.5
P 28.52197015065424 38.35706531314531 24.98997640945181 0.5
A 38.960796131060576 9.36007961137502 3.3938767024630634 2.5
E 37.90746390779822 7.995722829723711 1.5830697553265334 0.5
E 40.014128354322935 10.72443639302633 5.204683649599593 0.5
E 36.819424558033795 10.614827346732172 3.6941031284278285 0.5
E 41.10216770408736 8.10533187601787 3.0936502764982983 0.5
P 38.21580014874346 7.68254013554238 5.091181122227878 0.5
P 39.70579211337769 11.037619087207661 1.6965722826982483 0.5
A 16.44921767620123 2.6892554075480954 13.529976882869887 2.5
E 14.130480658384794 2.5488402824897096 14.45395861151195 0.5
E 18.767954694017664 2.8296705326064813 12.605995154227823 0.5
E 16.6824864209381 4.995700452944531 14.465870544188794 0.5
E 16.215948931464357 0.38281036215165987 12.59408322155098 0.5
P 17.354228358424606 1.7350044734522134 15.656090901411815 0.5
P 15.544206993977852 3.6435063416439775 11.403862864327959 0.5
A 8.996424853665323 37.954289767589785 19.889721762739526 2.5
E 11.177316805940961 37.23475393943232 18.90180552919634 0.5
E 6.815532901389684 38.673825595747246 20.87763799628271 0.5
E 8.554080873597417 39.37339612673102 17.879629987535317 0.5
E 9.438768833733228 36.535183408448546 21.899813537943736 0.5
P 7.857108349879795 36.025973057750946 18.779067644321344 0.5
P 10.13574135745085 39.882606477428624 21.00037588115771 0.5
A 17.073349109479402 0.47930223487273543 2.945715127719426 2.5
E 15.922026185301762 -1.296114830733634 1.6144188543784002 0.5
E 18.22467203365704 2.254719300479105 4.277011401060452 0.5
E 19.056030000008125 0.32995326378429535 1.430237852679634 0.5
E 15.090668218950677 0.6286512059611755 4.4611924027592185 0.5
P 16.07663851427623 2.2330379983170117 1.4689013745937152 0.5
P 18.070059704682574 -1.2744335285715407 4.422528880845137 0.5
A 32.615761659091824 39.78214563294932 11.714124709381089 2.5
E 33.27562186758769 41.307273338079206 13.581896105534582 0.5
E 31.955901450595963 38.25701792781944 9.846353313227596 0.5
E 34.81505018999982 40.19555515251061 10.59957433952213 0.5
E 30.41647312818382 39.36873611338804 12.828675079240048 0.5
P 33.604556108439326 37.84485937320827 12.946686060697202 0.5
P 31.626967209744322 41.71943189269037 10.481563358064976 0.5
A 0.46329370900761246 25.394528205939622 35.31764430384263 2.5
E -0.11611379243521369 23.20233544303836 36.37053453437779 0.5
E 1.0427012104504385 27.586720968840883 34.264754073307465 0.5
E 0.2689306540585022 26.5151684511269 37.543939083007935 0.5
E 0.6576567639567228 24.273887960752344 33.09134952467732 0.5
P 2.887445096636673 24.960412632444267 35.74779976260861 0.5
P -1.9608576786214482 25.828643779434977 34.887488845076646 0.5
A 6.611867504383514 39.668601256700576 15.699137171194323 2.5
E 7.752159722433425 41.739012187132424 14.88480785414461 0.5
E 5.471575286333603 37.59819032626873 16.513466488244035 0.5
E 5.491220107823219 39.41261995955211 13.479086949218178 0.5
E 7.7325149009438086 39.92458255384904 17.919187393170468 0.5
P 8.533815232611563 38.29096844834342 14.887814316037066 0.5
P 4.689919776155465 41.04623406505773 16.51046002635158 0.5
70
Properties=species:S:1:pos:R:3:radius:R:1
A 5.094271552112689 28.24519987420636 38.04314099599395 2.5
E 4.647099420134797 29.52406367775463 40.144222730805545 0.5
E 5.541443684090581 26.96633607065809 35.94205926118236 0.5
E 3.7932909609676977 29.93457995509057 36.73798029945954 0.5
E 6.3952521432576805 26.55581979332215 39.348301692528366 0.5
P 7.181730913597093 29.572039093662966 37.67980767813635 0.5
P 3.006812190628285 26.918360654749755 38.406474313851554 0.5
A 9.693488148541086 29.791303068251676 15.03386757695398 2.5
E 9.936952127969228 31.872011417664854 13.669544281175536 0.5
E 9.450024169112943 27.710594718838497 16.398190872732425 0.5
E 7.430034774498024 29.4072712424649 14.044272518196909 0.5
E 11.956941522584147 30.17533489403845 16.023462635711052 0.5
P 10.726689055555084 28.459697900994644 13.187432210015759 0.5
P 8.660287241527087 31.122908235508707 16.8803029438922 0.5
A 28.240863322488085 35.5656140635117 25.24212785050353 2.5
E 26.826398143268207 36.45938948676408 23.384588147142015 0.5
E 29.655328501707963 34.671838640259324 27.099667553865043 0.5
E 27.79135799245578 37.63045457572432 26.577934205256323 0.5
E 28.69036865252039 33.50077355129908 23.906321495750735 0.5
P 26.2290896734294 34.47584383455725 26.249683125928925 0.5
P 30.25263697154677 36.65538429246615 24.234572575078133 0.5
A 38.94418327713053 9.707830729561165 3.374745637416164 2.5
E 40.69043727163005 10.187249952259366 1.6511580430071588 0.5
E 37.197929282631 9.228411506862964 5.098333231825169 0.5
E 40.32031067879888 7.808802913448639 4.240751831393499 0.5
E 37.56805587546217 11.60685854567369 2.5087394434388286 0.5
P 40.08736758469894 11.261487886895777 4.965116372933827 0.5
P 37.800998969562116 8.154173572226552 1.7843749018985013 0.5
A 16.47453961840711 3.000951908286211 12.801873446118371 2.5
E 14.737421986380541 4.5953083439205455 13.632806589431006 0.5
E 18.211657250433678 1.4065954726518763 11.970940302805737 0.5
E 15.13319034470323 1.082300719645767 13.679118988862427 0.5
E 17.81588889211099 4.919603096926655 11.924627903374315 0.5
P 15.277374442486048 2.837229055630818 10.613268783534949 0.5
P 17.67170479432817 3.1646747609416037 14.990478108701794 0.5
A 8.379286545674423 37.55866447715964 20.532573205933897 2.5
E 9.002367472135258 39.04901154774112 18.62452819381002 0.5
E 7.756205619213589 36.06831740657816 22.440618218057775 0.5
E 8.52638907522492 39.501938670953294 22.09847430547255 0.5
E 8.232184016123927 35.61539028336598 18.966672106395244 0.5
P 5.962650246004682 38.061209019410086 20.135939901515655 0.5
P 10.795922845344165 37.05611993490919 20.929206510352138 0.5
A 17.21475417455883 0.6970042062434403 3.3045166318578163 2.5
E 14.75748936133102 0.3012329186374654 3.5394947703605637 0.5
E 19.67201898778664 1.0927754938494152 3.069538493355069 0.5
E 16.914847235286295 1.1055846945188237 0.8564321128160732 0.5
E 17.514661113831366 0.2884237179680568 5.75260115089956 0.5
P 16.865604542676326 3.1314296153497394 3.7535906369493537 0.5
P 17.563903806441335 -1.7374212028628588 2.855442626766279 0.5
A 32.369113509228356 40.24558235252358 11.775842751424666 2.5
E 32.76186060529947 41.992876717582035 13.520179909305172 0.5
E 31.976366413157248 38.49828798746512 10.031505593544159 0.5
E 32.82460740865763 41.930254527444745 9.985757566125077 0.5
E 31.91361960979909 38.56091017760241 13.565927936724254 0.5
P 34.79569032155275 39.6465480756401 11.829535479128335 0.5
P 29.942536696903964 40.84461662940706 11.722150023720996 0.5
A 0.9454309542186662 26.42957484981969 35.05975274848589 2.5
E -1.4732390762639342 26.230388920994372 34.459452615715186 0.5
E 3.364100984701267 26.62876077864501 35.6600528812566 0.5
E 0.3133340316529132 27.107873999809442 37.38146843814458 0.5
E 1.5775278767844192 25.75127569982994 32.7380370588272 0.5
P 0.9675389647450171 24.03161004005237 35.76634740385019 0.5
P 0.9233229436923153 28.82753965958701 34.35315809312159 0.5
A 6.637095610760342 38.661890384464854 15.538556813902447 2.5
E 4.576878529536866 40.07596668704226 15.461785799012045 0.5
E 8.697312691983818 37.24781408188745 15.61532782879285 0.5
E 6.109576594498567 38.021361469236524 17.896828722788676 0.5
E 7.164614627022117 39.302419299693184 13.180284905016219 0.5
P 5.322854664160178 36.702270288821644 14.712324513012398 0.5
P 7.951336557360507 40.621510480108064 16.364789114792497 0.5
70
Properties=species:S:1:pos:R:3:radius:R:1
A 5.7932629379192875 28.11751245129006 38.59674285760045 2.5
E 4.76585111983 27.340882155602547 40.73946783759048 0.5
E 6.820674756008575 28.894142746977575 36.45401787761041 0.5
E 6.282024359442923 30.338129260850007 39.635960475778894 0.5
E 5.304501516395652 25.896895641730115 37.557525239422 0.5
P 8.01936653588663 27.27151814343532 39.35750326810872 0.5
P 3.5671593399519437 28.963506759144803 37.83598244709217 0.5
A 10.025667081316719 29.881320294959526 15.455090229179497 2.5
E 11.19097560326432 27.686422226038136 15.727997751468385 0.5
E 8.860358559369118 32.07621836388091 15.18218270689061 0.5
E 8.580314007364638 28.89214611587091 13.671137052932417 0.5
E 11.4710201552688 30.87049447404814 17.239043405426575 0.5
P 8.351447698949528 29.207557049843018 17.185128537783243 0.5
P 11.69988646368391 30.555083540076033 13.725051920575753 0.5
A 27.88083574012915 35.383299039418695 24.984105062868352 2.5
E 29.191923292969786 34.579663333257635 23.013009154352176 0.5
E 26.569748187288514 36.186934745579755 26.955200971384528 0.5
E 25.962900766585186 35.94149660340177 23.480795075932814 0.5
E 29.798770713673115 34.82510147543562 26.48741504980389 0.5
P 26.95748593315288 33.082737122984746 25.307895122336685 0.5
P 28.80418554710542 37.683860955852644 24.66031500340002 0.5
A 38.77008250541527 10.068535484022123 3.5833489203123787 2.5
E 40.07306519791556 11.625235991829092 2.1242671432906253 0.5
E 37.467099812914974 8.511834976215154 5.042430697334132 0.5
E 40.86023635440396 9.480464518070361 4.8224733799858495 0.5
E 36.679928656426576 10.656606449973884 2.3442244606389075 0.5
P 38.34172168717765 11.934240730838143 5.191344859797524 0.5
P 39.19844332365288 8.202830237206102 1.9753529808272337 0.5
A 16.175903650242812 3.0729876437847374 12.317355114388064 2.5
E 14.23210193377024 4.461712805743602 13.05429290795171 0.5
E 18.119705366715387 1.6842624818258731 11.580417320824418 0.5
E 17.16528992738988 3.2428401827781843 14.606954404567984 0.5
E 15.186517373095745 2.9031351047912906 10.027755824208144 0.5
P 14.954122294339394 1.0011303756454346 12.999013224313414 0.5
P 17.39768500614623 5.14484491192404 11.635697004462715 0.5
A 8.154973646794133 37.51768373682314 20.917381711346092 2.5
E 9.165556784032471 39.73542406946085 20.360291467559325 0.5
E 7.1443905095557945 35.29994340418543 21.47447195513286 0.5
E 9.858605647084108 37.193712255661545 22.71812613712751 0.5
E 6.451341646504159 37.84165521798473 19.116637285564675 0.5
P 6.629732770631158 38.6252352238371 22.55962711727532 0.5
P 9.680214522957108 36.41013224980917 19.275136305416865 0.5
A 17.531073938134067 1.4213598208798366 3.5705736978077804 2.5
E 16.673970284873008 3.330385733521664 4.938416302943157 0.5
E 18.388177591395127 -0.4876660917619908 2.2027310926724044 0.5
E 16.692237961363713 2.53254445238393 1.494128919158518 0.5
E 18.369909914904422 0.31017518937574295 5.647018476457043 0.5
P 19.72463896603664 2.5922094182091007 3.310990014207227 0.5
P 15.337508910231493 0.2505102235505725 3.830157381408334 0.5
A 32.23169600791742 0.0937274006650403 11.50319305928796 2.5
E 30.884337622854844 1.1303489170880012 9.670151539329769 0.5
E 33.57905439298 -0.9428941157579206 13.336234579246153 0.5
E 31.706991875801997 2.035962653082447 12.98724420328813 0.5
E 32.756400140032845 -1.8485078517523663 10.019141915287792 0.5
P 30.19225712529733 -1.0908138843715651 12.332380003288689 0.5
P 34.27113489053751 1.2782686857016459 10.674006115287233 0.5
A 1.136202366355649 27.358009065426472 34.96208566041638 2.5
E -1.3407476963314384 27.521242301746458 35.25885711712316 0.5
E 3.613152429042737 27.194775829106486 34.66531420370959 0.5
E 1.3907763296664792 26.810387845870153 37.38805002476652 0.5
E 0.8816284030448188 27.90563028498279 32.536121296066234 0.5
P 0.9127958217792238 24.924191917312612 34.436135467538506 0.5
P 1.3596089109320744 29.791826213540332 35.48803585329425 0.5
A 6.08154642737312 37.495978049467276 15.360558095743212 2.5
E 5.4178520397048615 38.46685487658193 17.56666506195149 0.5
E 6.745240815041379 36.525101222352625 13.154451129534934 0.5
E 7.667013398225542 35.948345002915175 16.518628230734677 0.5
E 4.4960794565206985 39.043611096019376 14.202487960751748 0.5
P 4.2661114260258 35.78945229818343 15.565413205739043 0.5
P 7.896981428720441 39.202503800751124 15.15570298574738 0.5
70
Properties=species:S:1:pos:R:3:radius:R:1
A 6.3545535765988 27.90861732818561 39.2964328083852 2.5
E 7.6989745336900715 26.128105674298013 40.424400246083096 0.5
E 5.010132619507528 29.689128982073207 38.1684653706873 0.5
E 8.341707351676067 29.425376126121524 39.32217427459613 0.5
E 4.367399801521533 26.391858530249696 39.27069134217427 0.5
P 7.057228582794752 27.025882374047637 37.06550770062988 0.5
P 5.651878570402848 28.791352282323583 41.52735791614052 0.5
A 10.366979158510304 30.054440848410525 16.241135376469924 2.5
E 9.053357115337294 31.984844493904802 17.13440963063429 0.5
E 11.680601201683315 28.12403720291625 15.347861122305556 0.5
E 8.41182612164993 28.54513466800777 16.627621412769088 0.5
E 12.322132195370678 31.56374702881328 15.85464934017076 0.5
P 9.529259796106547 30.549957366057505 13.938378409138506 0.5
P 11.20469852091406 29.558924330763546 18.54389234380134 0.5
A 27.720228516957253 35.7089652225474 25.36697427942754 2.5
E 30.031196930287116 36.66138490989621 25.318789927796757 0.5
E 25.40926010362739 34.75654553519858 25.415158631058326 0.5
E 28.617628295489258 33.49432034997538 24.632112574151478 0.5
E 26.822828738425248 37.923610095119415 26.101835984703605 0.5
P 28.04287171010164 35.04696459751679 27.75604450492882 0.5
P 27.397585323812866 36.370965847578006 22.977904053926263 0.5
A 38.65447920706214 10.493238351860755 4.088806351884714 2.5
E 38.75947816334591 12.590017740105711 2.7314223177185792 0.5
E 38.549480250778366 8.3964589636158 5.44619038605085 0.5
E 40.50916677083315 11.337786373245127 5.5368645966965735 0.5
E 36.79979164329113 9.648690330476384 2.640748107072855 0.5
P 36.9814253346566 11.561065508569909 5.6088839497138405 0.5
P 40.32753307946768 9.425411195151602 2.5687287540555883 0.5
A 15.793561190525672 3.071875405382056 11.749842695281988 2.5
E 15.626896196051693 1.0537408431810817 13.215910793450929 0.5
E 15.960226184999652 5.09000996758303 10.283774597113046 0.5
E 16.26425626886653 4.489371734603427 13.754624553707352 0.5
E 15.322866112184816 1.6543790761606842 9.745060836856624 0.5
P 18.243187472807218 2.662196207111453 11.464371100089625 0.5
P 13.343934908244126 3.4815546036526586 12.03531429047435 0.5
A 8.4835490143787 37.319159551325974 21.391439558270985 2.5
E 10.209679490567254 38.214211557936146 19.820021254751182 0.5
E 6.757418538190144 36.4241075447158 22.962857861790788 0.5
E 9.272042715097133 34.99169648093867 20.931881792683757 0.5
E 7.695055313660267 39.64662262171328 21.850997323858213 0.5
P 10.111047482304642 37.49747825883387 23.280738681081424 0.5
P 6.856050546452757 37.140840843818076 19.502140435460547 0.5
A 17.657958255698162 2.3977712583404442 3.41667839266759 2.5
E 18.413417214663024 4.742865162749913 3.8407259617166267 0.5
E 16.9024992967333 0.05267735393097528 2.9926308236185535 0.5
E 16.75158228481433 3.0919248049939707 1.192575550380877 0.5
E 18.564334226581995 1.7036177116869178 5.640781234954304 0.5
P 19.86199191259164 1.8794225020334587 2.356701880611364 0.5
P 15.453924598804685 2.9161200146474298 4.476654904723816 0.5
A 31.7512690883518 0.33759245815345224 11.081601208435082 2.5
E 31.726127236541817 2.3716467675781523 12.534870265973426 0.5
E 31.776410940161785 -1.6964618512712477 9.628332150896737 0.5
E 34.124050559939185 0.8145104411116464 10.455137062914595 0.5
E 29.378487616764417 -0.13932552480474192 11.708065353955568 0.5
P 32.5382099853569 -1.0354233115454647 13.01694399997846 0.5
P 30.964328191346702 1.710608227852369 9.146258416891703 0.5
A 1.085143217049459 28.164296627286493 34.617660294559435 2.5
E -1.354310149312597 27.948134285507496 35.11999595459405 0.5
E 3.5245965834115154 28.38045896906549 34.11532463452482 0.5
E 1.3312206694214628 25.679620259961535 34.743474590614845 0.5
E 0.8390657646774554 30.64897299461145 34.491845998504026 0.5
P 0.5967651250143062 27.992083992284197 32.171882371777684 0.5
P 1.5735213090846119 28.33650926228879 37.06343821734119 0.5
A 5.434467808238108 36.46808872893101 15.742783747686728 2.5
E 6.610218284493473 36.20905131154142 17.93379046469619 0.5
E 4.258717331982743 36.72712614632059 13.551777030677265 0.5
E 3.319683447133532 35.62826197778881 16.778340667463045 0.5
E 7.549252169342685 37.307915480073206 14.707226827910409 0.5
P 4.805740583111058 38.80851404165971 16.35687774043211 0.5
P 6.063195033365158 34.1276634162023 15.128689754941345 0.5
70
Properties=species:S:1:pos:R:3:radius:R:1
A 6.644408863259273 27.678136738325406 39.99202098779998 2.5
E 8.733966305540289 26.47053086895643 40.6442768882534 0.5
E 4.554851420978258 28.885742607694382 39.339765087346564 0.5
E 7.9366056546775505 29.008666060687972 38.315739634749605 0.5
E 5.352212071840996 26.34760741596284 41.66830234085036 0.5
P 6.181832223491321 25.93992507497664 38.25574823683544 0.5
P 7.106985503027225 29.416348401674174 41.72829373876453 0.5
A 10.425834650437725 30.38531004008733 17.036467573786307 2.5
E 11.52936430502427 29.62545700634887 14.925817041706892 0.5
E 9.32230499585118 31.14516307382579 19.147118105865722 0.5
E 8.210479330518432 29.646296631706388 16.144245634614766 0.5
E 12.641189970357019 31.12432344846827 17.92868951295785 0.5
P 10.77857124898393 28.12113633885498 18.036014642560165 0.5
P 10.07309805189152 32.64948374131968 16.03692050501245 0.5
A 27.57738020843135 35.78681977153233 25.111149624067743 2.5
E 28.827522468960115 36.36081542746256 23.023645536547594 0.5
E 26.327237947902585 35.212824115602096 27.19865371158789 0.5
E 28.982478004883784 37.405589301708076 26.397728572511703 0.5
E 26.172282411978916 34.16805024135658 23.824570675623782 0.5
P 25.930308713066132 37.6034414148989 24.624280756704486 0.5
P 29.224451703796568 33.970198128165755 25.598018491431 0.5
A 38.28382815864904 10.700172002441706 4.474662368669697 2.5
E 39.75017188801675 12.724882337338487 4.4550632078507775 0.5
E 36.81748442928132 8.675461667544925 4.494261529488616 0.5
E 39.95766638080454 9.501668336470471 5.893060961697584 0.5
E 36.609989936493534 11.89867566841294 3.05626377564181 0.5
P 37.144485508962845 11.545238285294321 6.53324472169577 0.5
P 39.42317080833523 9.85510571958909 2.416080015643624 0.5
A 15.519969052562413 2.861525864538187 11.814011045650878 2.5
E 17.816672148593764 2.1031163470613623 11.181579316147639 0.5
E 13.223265956531062 3.619935382015012 12.446442775154116 0.5
E 15.986037913483662 2.2824785547291655 14.200951352798166 0.5
E 15.053900191641164 3.4405731743472088 9.42707073850359 0.5
P 16.390563507840792 5.172265836236731 12.204582521356718 0.5
P 14.649374597284034 0.5507858928396434 11.423439569945037 0.5
A 8.878036684588848 37.00603514359244 21.37055331892876 2.5
E 10.997550089923275 37.54365008209139 20.158681583755623 0.5
E 6.758523279254421 36.468420205093494 22.582425054101897 0.5
E 10.047638890129498 35.17176335383306 22.60241275981009 0.5
E 7.708434479048198 38.840306933351826 20.13869387804743 0.5
P 9.502291124223223 38.617375324682946 23.177177025017304 0.5
P 8.253782244954472 35.39469496250194 19.563929612840216 0.5
A 17.718838343689633 2.556130611810362 3.6606620234326885 2.5
E 18.63467718225359 2.7162051352720895 1.339969159499292 0.5
E 16.802999505125676 2.3960560883486344 5.981354887366085 0.5
E 15.787896441291656 3.999243920800065 2.9981762900198596 0.5
E 19.64978024608761 1.113017302820659 4.323147756845517 0.5
P 16.421648075711737 0.5209893085219748 3.0083604947604496 0.5
P 19.01602861166753 4.5912719150987495 4.312963552104928 0.5
A 31.97691734254821 0.5323905515547964 10.748624744575643 2.5
E 34.05522786610782 -0.8427690210906338 10.549723971769101 0.5
E 29.898606818988597 1.9075501242002266 10.947525517382186 0.5
E 31.167168475497366 -0.37550578227424825 8.564584676415334 0.5
E 32.786666209599055 1.440286885383841 12.932664812735952 0.5
P 30.84778841281021 -1.347678701632822 11.948794508920383 0.5
P 33.10604627228621 2.412459804742415 9.548454980230904 0.5
A 0.6714701277403499 28.43513898733345 34.58754224092794 2.5
E -1.42366088695461 28.995173452738666 35.83124133187499 0.5
E 2.7666011424353094 27.875104521928233 33.343843149980884 0.5
E -0.3708857003066477 26.307489695621054 33.78966830400985 0.5
E 1.7138259557873474 30.562788279045844 35.385416177846025 0.5
P -0.20825730675324916 29.622349958069066 32.57095855757501 0.5
P 1.551197562233949 27.247928016597832 36.604125924280865 0.5
A 5.533854244816037 35.63014182148428 16.345718547544685 2.5
E 3.56064469356184 36.77671473925863 17.366411748790096 0.5
E 7.507063796070233 34.48356890370993 15.325025346299272 0.5
E 5.191872299476209 36.92231837984902 14.233059537889497 0.5
E 5.875836190155864 34.33796526311954 18.458377557199874 0.5
P 7.030347617973361 37.43725285466461 17.208769703535534 0.5
P 4.037360871658712 33.82303078830395 15.482667391553834 0.5
70
Properties=species:S:1:pos:R:3:radius:R:1
A 6.860830779011846 28.30488478984653 0.16876118607170218 2.5
E 6.9429041007530214 29.134068106333693 -2.188296088904942 0.5
E 6.778757457270671 27.475701473359365 2.525818461048346 0.5
E 7.278082357923868 25.975122633749116 -0.6362912444658143 0.5
E 6.443579200099824 30.634646945943942 0.9738136166092187 0.5
P 9.324398332328865 28.67184980681447 0.38363693288348655 0.5
P 4.397263225694827 27.937919772878587 -0.04611456074008216 0.5
A 10.380115657590494 30.580809959243453 17.712271611227056 2.5
E 9.139519617910425 31.294053323723972 19.762199748834593 0.5
E 11.620711697270563 29.867566594762934 15.66234347361952 0.5
E 8.494958253253207 29.056526536380662 17.10174592981926 0.5
E 12.26527306192778 32.10509338210625 18.322797292634853 0.5
P 9.304428422748092 32.42955113902246 16.418033216267723 0.5
P 11.455802892432896 28.73206877946445 19.00651000618639 0.5
A 27.45511882699451 36.04420262710679 24.591275179435886 2.5
E 29.146527882289472 35.65849169664626 22.791174491754873 0.5
E 25.76370977169955 36.429913557567325 26.3913758671169 0.5
E 26.050842359851806 37.354604233764334 22.991007941410086 0.5
E 28.859395294137215 34.73380102044925 26.191542417461687 0.5
P 26.264680667535735 33.95038441451221 23.921363035112616 0.5
P 28.645556986453286 38.138020839701376 25.261187323759156 0.5
A 37.85815806194591 10.457189130053706 4.171419902666379 2.5
E 37.803902063638276 10.946155724057373 6.62253555815775 0.5
E 37.91241406025354 9.968222536050039 1.7203042471750076 0.5
E 39.063315445226316 8.314442286219657 4.625547246880248 0.5
E 36.6530006786655 12.599935973887755 3.717292558452511 0.5
P 35.668488687777476 9.265741425290097 4.360629835389698 0.5
P 40.04782743611434 11.648636834817315 3.98220996994306 0.5
A 15.562563720906777 2.418164645879252 12.085393154331902 2.5
E 16.396384920778164 2.402300498291696 9.72859648608316 0.5
E 14.728742521035388 2.434028793466808 14.442189822580643 0.5
E 15.764404489028832 4.90940423006287 12.140034151051713 0.5
E 15.360722952784721 -0.07307493830436673 12.03075215761209 0.5
P 13.214372393316339 2.626668034388781 11.253212989937731 0.5
P 17.910755048497215 2.2096612573697225 12.917573318726072 0.5
A 9.273942981868062 36.95726937433002 21.19616898184716 2.5
E 11.438996188904486 36.08314781551532 20.30260526776864 0.5
E 7.108889774831638 37.83139093314472 22.089732695925676 0.5
E 9.215846562061657 35.10173352037838 22.87056782940612 0.5
E 9.332039401674468 38.812805228281654 19.521770134288197 0.5
P 10.52261003785541 38.386569271173386 22.823415855611728 0.5
P 8.025275925880715 35.52796947748665 19.56892210808259 0.5
A 17.40317797122127 2.1633298538904846 4.138244695349481 2.5
E 17.129953822177665 2.2974476354292865 1.6568416678165678 0.5
E 17.67640212026488 2.0292120723516827 6.6196477228823944 0.5
E 15.004635488488217 2.801939258442312 4.436861484793275 0.5
E 19.801720453954324 1.5247204493386572 3.8396279059056875 0.5
P 16.753299118742476 -0.2500061047128912 4.079363221117134 0.5
P 18.053056823700068 4.576665812493861 4.1971261695818285 0.5
A 32.73963780789474 0.6064824549666072 9.94664006825441 2.5
E 31.695752002620456 0.17027462766532958 7.717284745084067 0.5
E 33.783523613169024 1.042690282267885 12.175995391424754 0.5
E 30.777483141789535 2.0159184873838063 10.58963239853964 0.5
E 34.701792473999944 -0.802953577450592 9.30364773796918 0.5
P 31.59497563422583 -1.4117377515334537 10.877519064819705 0.5
P 33.88429998156364 2.624702661466668 9.015761071689116 0.5
A 0.20661752360154984 28.71451856792845 34.840768492423564 2.5
E -1.9960053711570684 29.843811772759615 35.19169475392045 0.5
E 2.409240418360168 27.585225363097287 34.489842230926676 0.5
E -0.9742751436183695 26.65348450618236 34.06126152976737 0.5
E 1.387510190821469 30.775552629674543 35.62027545507976 0.5
P 0.26942589877751233 29.567065020531135 32.49146654202145 0.5
P 0.14380914842558734 27.861972115325766 37.19007044282568 0.5
A 5.991672644466328 35.251641981334146 16.70957063349926 2.5
E 5.2087764544583814 35.79792508847207 14.399019114374504 0.5
E 6.774568834474274 34.70535887419622 19.02012215262402 0.5
E 7.9591762194827265 34.0391648205124 15.756245496525379 0.5
E 4.024169069449929 36.464119142155894 17.662895770473142 0.5
P 7.320583189977829 37.368591178018924 16.75979872013362 0.5
P 4.662762098954826 33.13469278464937 16.659342546864902 0.5
70
Properties=species:S:1:pos:R:3:radius:R:1
A 7.354296626116198 29.023529892442408 0.46925492104712685 2.5
E 7.31432278353216 26.619731428353692 -0.21642360126224036 0.5
E 7.394270468700236 31.427328356531124 1.154933443356494 0.5
E 9.339359748403663 29.40977910642932 -1.000553211067875 0.5
E 5.369233503828733 28.637280678455497 1.9390630531621287 0.5
P 5.835110497807371 29.591477503355406 -1.4332458066307383 0.5
P 8.873482754425025 28.45558228152941 2.3717556487249922 0.5
A 10.48168069281651 30.834599693606364 17.710582120624945 2.5
E 10.127075874993384 33.27821432284418 18.10173805749943 0.5
E 10.836285510639637 28.390985064368554 17.319426183750462 0.5
E 9.363040945380522 31.028800672345785 15.483267348233406 0.5
E 11.6003204402525 30.640398714866944 19.937896893016486 0.5
P 12.689145423822094 31.32555134461915 16.64471818102719 0.5
P 8.274215961810928 30.34364804259358 18.7764460602227 0.5
A 27.799580889336177 36.00196342692662 23.71670379090901 2.5
E 29.123206281033788 37.12810402453865 21.919532909533668 0.5
E 26.475955497638566 34.87582282931459 25.51387467228435 0.5
E 28.69152707589172 33.7843854416867 22.984051158573372 0.5
E 26.907634702780634 38.21954141216654 24.449356423244645 0.5
P 29.72375547152523 36.255252261637764 25.29258352726845 0.5
P 25.875406307147124 35.74867459221548 22.140824054549565 0.5
A 37.77021533594247 10.338013650047158 4.230425477236396 2.5
E 39.336284875368655 11.378452023034747 5.878125143345246 0.5
E 36.20414579651628 9.297575277059568 2.582725811127545 0.5
E 38.11279842623128 8.110093549436252 5.311632604266589 0.5
E 37.427632245653655 12.565933750658063 3.149218350206202 0.5
P 35.85186629994082 10.78952225163483 5.768631236802625 0.5
P 39.68856437194411 9.886505048459485 2.6922197176701665 0.5
A 15.642625575625434 2.3587070367578 12.130040393465949 2.5
E 14.398941663516768 0.38014540651709106 11.242040279669046 0.5
E 16.8863094877341 4.337268666998509 13.018040507262851 0.5
E 13.50005767915691 3.638108522424716 12.280155840698178 0.5
E 17.785193472093958 1.0793055510908838 11.97992494623372 0.5
P 15.306987175279874 1.5229883557325898 14.462189863461592 0.5
P 15.978263975970995 3.1944257177830098 9.797890923470305 0.5
A 9.700662491592094 36.72857136072397 21.32320277813109 2.5
E 11.849386614364944 37.95162249224621 21.693514233391525 0.5
E 7.551938368819245 35.50552022920173 20.952891322870656 0.5
E 10.782188681019797 35.373924132341315 19.521750034310685 0.5
E 8.619136302164392 38.08321858910662 23.124655521951496 0.5
P 10.381313463674642 35.02004075920749 23.01661278102044 0.5
P 9.020011519509547 38.43710196224045 19.62979277524174 0.5
A 16.97813099624227 1.4583292512370953 4.71524798193691 2.5
E 18.633066285291406 3.1294518903665174 3.867581588806006 0.5
E 15.323195707193136 -0.2127933878923267 5.562914375067814 0.5
E 15.243346169402635 2.397236957106724 3.179352827826386 0.5
E 18.712915823081907 0.5194215453674665 6.2511431360474345 0.5
P 17.686446458180956 -0.1466011039005759 2.934100104434641 0.5
P 16.269815534303586 3.063259606374767 6.496395859439179 0.5
A 33.55949250329906 0.5853814949068262 9.323402126762998 2.5
E 31.092105683750024 0.21114453311888892 9.17525024811303 0.5
E 36.0268793228481 0.9596184566947635 9.471554005412965 0.5
E 33.670873380886874 -0.9337458996650309 11.305786110548478 0.5
E 33.44811162571125 2.104508889478683 7.341018142977517 0.5
P 33.946269677940414 -1.3645412357399955 7.807419026038127 0.5
P 33.17271532865771 2.535304225553648 10.839385227487869 0.5
A 40.031494183535315 29.217347884117835 34.81199193832246 2.5
E 37.92275120027351 28.028617718516788 34.18739316796238 0.5
E 42.14023716679712 30.406078049718882 35.43659070868254 0.5
E 41.076566707122424 27.034342280324495 35.43833845124582 0.5
E 38.986421659948206 31.400353487911175 34.185645425399095 0.5
P 40.87471802747504 28.95012676369865 32.47370914494298 0.5
P 39.18827033959559 29.484569004537022 37.150274731701934 0.5
A 6.841984580783391 35.42205272567714 17.03414577629031 2.5
E 7.1796675492343 37.71229973523315 16.090356155643253 0.5
E 6.504301612332482 33.13180571612113 17.977935396937365 0.5
E 9.263487177526244 34.91619066884684 16.672996564149095 0.5
E 4.420481984040538 35.92791478250744 17.395294988431523 0.5
P 7.363803885513471 36.28742675734342 19.320809809009557 0.5
P 6.320165276053311 34.55667869401086 14.747481743571061 0.5
